1
Step 120000
Ar 1.009912e+00 0.000000e+00 0.000000e+00
1
Step 121000
Ar 9.516811e-01 0.000000e+00 0.000000e+00
1
Step 122000
Ar 1.056053e+00 0.000000e+00 0.000000e+00
1
Step 123000
Ar 1.076014e+00 0.000000e+00 0.000000e+00
1
Step 124000
Ar 9.858007e-01 0.000000e+00 0.000000e+00
1
Step 125000
Ar 9.821500e-01 0.000000e+00 0.000000e+00
1
Step 126000
Ar 1.202695e+00 0.000000e+00 0.000000e+00
1
Step 127000
Ar 8.549656e-01 0.000000e+00 0.000000e+00
1
Step 128000
Ar 8.761340e-01 0.000000e+00 0.000000e+00
1
Step 129000
Ar 1.153868e+00 0.000000e+00 0.000000e+00
1
Step 130000
Ar 9.789485e-01 0.000000e+00 0.000000e+00
1
Step 131000
Ar 8.078332e-01 0.000000e+00 0.000000e+00
1
Step 132000
Ar 9.298067e-01 0.000000e+00 0.000000e+00
1
Step 133000
Ar 1.037331e+00 0.000000e+00 0.000000e+00
1
Step 134000
Ar 9.746434e-01 0.000000e+00 0.000000e+00
1
Step 135000
Ar 1.215843e+00 0.000000e+00 0.000000e+00
1
Step 136000
Ar 9.985051e-01 0.000000e+00 0.000000e+00
1
Step 137000
Ar 1.089915e+00 0.000000e+00 0.000000e+00
1
Step 138000
Ar 9.091229e-01 0.000000e+00 0.000000e+00
1
Step 139000
Ar 8.785866e-01 0.000000e+00 0.000000e+00
1
Step 140000
Ar 9.268944e-01 0.000000e+00 0.000000e+00
1
Step 141000
Ar 9.950261e-01 0.000000e+00 0.000000e+00
1
Step 142000
Ar 1.208722e+00 0.000000e+00 0.000000e+00
1
Step 143000
Ar 1.057816e+00 0.000000e+00 0.000000e+00
1
Step 144000
Ar 1.037817e+00 0.000000e+00 0.000000e+00
1
Step 145000
Ar 9.607321e-01 0.000000e+00 0.000000e+00
1
Step 146000
Ar 9.344164e-01 0.000000e+00 0.000000e+00
1
Step 147000
Ar 1.002941e+00 0.000000e+00 0.000000e+00
1
Step 148000
Ar 9.038295e-01 0.000000e+00 0.000000e+00
1
Step 149000
Ar 1.096982e+00 0.000000e+00 0.000000e+00
1
Step 150000
Ar 1.127405e+00 0.000000e+00 0.000000e+00
1
Step 151000
Ar 1.006163e+00 0.000000e+00 0.000000e+00
1
Step 152000
Ar 9.645347e-01 0.000000e+00 0.000000e+00
1
Step 153000
Ar 1.000592e+00 0.000000e+00 0.000000e+00
1
Step 154000
Ar 7.627853e-01 0.000000e+00 0.000000e+00
1
Step 155000
Ar 9.238415e-01 0.000000e+00 0.000000e+00
1
Step 156000
Ar 9.355863e-01 0.000000e+00 0.000000e+00
1
Step 157000
Ar 1.172511e+00 0.000000e+00 0.000000e+00
1
Step 158000
Ar 1.091784e+00 0.000000e+00 0.000000e+00
1
Step 159000
Ar 1.020313e+00 0.000000e+00 0.000000e+00
1
Step 160000
Ar 1.151881e+00 0.000000e+00 0.000000e+00
1
Step 161000
Ar 1.084019e+00 0.000000e+00 0.000000e+00
1
Step 162000
Ar 1.041337e+00 0.000000e+00 0.000000e+00
1
Step 163000
Ar 1.032659e+00 0.000000e+00 0.000000e+00
1
Step 164000
Ar 1.013932e+00 0.000000e+00 0.000000e+00
1
Step 165000
Ar 8.097406e-01 0.000000e+00 0.000000e+00
1
Step 166000
Ar 9.069211e-01 0.000000e+00 0.000000e+00
1
Step 167000
Ar 1.123708e+00 0.000000e+00 0.000000e+00
1
Step 168000
Ar 7.064185e-01 0.000000e+00 0.000000e+00
1
Step 169000
Ar 8.514542e-01 0.000000e+00 0.000000e+00
1
Step 170000
Ar 8.465471e-01 0.000000e+00 0.000000e+00
1
Step 171000
Ar 1.229525e+00 0.000000e+00 0.000000e+00
1
Step 172000
Ar 1.015040e+00 0.000000e+00 0.000000e+00
1
Step 173000
Ar 8.766705e-01 0.000000e+00 0.000000e+00
1
Step 174000
Ar 9.359480e-01 0.000000e+00 0.000000e+00
1
Step 175000
Ar 1.099108e+00 0.000000e+00 0.000000e+00
1
Step 176000
Ar 1.020449e+00 0.000000e+00 0.000000e+00
1
Step 177000
Ar 1.003305e+00 0.000000e+00 0.000000e+00
1
Step 178000
Ar 1.140733e+00 0.000000e+00 0.000000e+00
1
Step 179000
Ar 1.016075e+00 0.000000e+00 0.000000e+00
1
Step 180000
Ar 8.461706e-01 0.000000e+00 0.000000e+00
1
Step 181000
Ar 1.079498e+00 0.000000e+00 0.000000e+00
1
Step 182000
Ar 1.048469e+00 0.000000e+00 0.000000e+00
1
Step 183000
Ar 1.154801e+00 0.000000e+00 0.000000e+00
1
Step 184000
Ar 8.348220e-01 0.000000e+00 0.000000e+00
1
Step 185000
Ar 1.061055e+00 0.000000e+00 0.000000e+00
1
Step 186000
Ar 9.181357e-01 0.000000e+00 0.000000e+00
1
Step 187000
Ar 1.055875e+00 0.000000e+00 0.000000e+00
1
Step 188000
Ar 8.701962e-01 0.000000e+00 0.000000e+00
1
Step 189000
Ar 1.087147e+00 0.000000e+00 0.000000e+00
1
Step 190000
Ar 7.365373e-01 0.000000e+00 0.000000e+00
1
Step 191000
Ar 8.685797e-01 0.000000e+00 0.000000e+00
1
Step 192000
Ar 8.805346e-01 0.000000e+00 0.000000e+00
1
Step 193000
Ar 8.410814e-01 0.000000e+00 0.000000e+00
1
Step 194000
Ar 1.128466e+00 0.000000e+00 0.000000e+00
1
Step 195000
Ar 8.718243e-01 0.000000e+00 0.000000e+00
1
Step 196000
Ar 1.171058e+00 0.000000e+00 0.000000e+00
1
Step 197000
Ar 9.670717e-01 0.000000e+00 0.000000e+00
1
Step 198000
Ar 9.507656e-01 0.000000e+00 0.000000e+00
1
Step 199000
Ar 9.148734e-01 0.000000e+00 0.000000e+00
1
Step 200000
Ar 9.706062e-01 0.000000e+00 0.000000e+00
1
Step 201000
Ar 9.459525e-01 0.000000e+00 0.000000e+00
1
Step 202000
Ar 6.405461e-01 0.000000e+00 0.000000e+00
1
Step 203000
Ar 9.775272e-01 0.000000e+00 0.000000e+00
1
Step 204000
Ar 1.059319e+00 0.000000e+00 0.000000e+00
1
Step 205000
Ar 1.045204e+00 0.000000e+00 0.000000e+00
1
Step 206000
Ar 1.028292e+00 0.000000e+00 0.000000e+00
1
Step 207000
Ar 9.817825e-01 0.000000e+00 0.000000e+00
1
Step 208000
Ar 1.204150e+00 0.000000e+00 0.000000e+00
1
Step 209000
Ar 9.948492e-01 0.000000e+00 0.000000e+00
1
Step 210000
Ar 9.407675e-01 0.000000e+00 0.000000e+00
1
Step 211000
Ar 1.008058e+00 0.000000e+00 0.000000e+00
1
Step 212000
Ar 1.064137e+00 0.000000e+00 0.000000e+00
1
Step 213000
Ar 9.701766e-01 0.000000e+00 0.000000e+00
1
Step 214000
Ar 8.677989e-01 0.000000e+00 0.000000e+00
1
Step 215000
Ar 1.010589e+00 0.000000e+00 0.000000e+00
1
Step 216000
Ar 1.031493e+00 0.000000e+00 0.000000e+00
1
Step 217000
Ar 1.007739e+00 0.000000e+00 0.000000e+00
1
Step 218000
Ar 9.841496e-01 0.000000e+00 0.000000e+00
1
Step 219000
Ar 9.745724e-01 0.000000e+00 0.000000e+00
1
Step 220000
Ar 8.504211e-01 0.000000e+00 0.000000e+00
1
Step 221000
Ar 1.104601e+00 0.000000e+00 0.000000e+00
1
Step 222000
Ar 1.070106e+00 0.000000e+00 0.000000e+00
1
Step 223000
Ar 1.063493e+00 0.000000e+00 0.000000e+00
1
Step 224000
Ar 6.356800e-01 0.000000e+00 0.000000e+00
1
Step 225000
Ar 1.054234e+00 0.000000e+00 0.000000e+00
1
Step 226000
Ar 1.149235e+00 0.000000e+00 0.000000e+00
1
Step 227000
Ar 7.782845e-01 0.000000e+00 0.000000e+00
1
Step 228000
Ar 1.064130e+00 0.000000e+00 0.000000e+00
1
Step 229000
Ar 8.779254e-01 0.000000e+00 0.000000e+00
1
Step 230000
Ar 8.819846e-01 0.000000e+00 0.000000e+00
1
Step 231000
Ar 9.664197e-01 0.000000e+00 0.000000e+00
1
Step 232000
Ar 8.977893e-01 0.000000e+00 0.000000e+00
1
Step 233000
Ar 1.016526e+00 0.000000e+00 0.000000e+00
1
Step 234000
Ar 9.217716e-01 0.000000e+00 0.000000e+00
1
Step 235000
Ar 9.692431e-01 0.000000e+00 0.000000e+00
1
Step 236000
Ar 9.653289e-01 0.000000e+00 0.000000e+00
1
Step 237000
Ar 9.748754e-01 0.000000e+00 0.000000e+00
1
Step 238000
Ar 9.079189e-01 0.000000e+00 0.000000e+00
1
Step 239000
Ar 1.193083e+00 0.000000e+00 0.000000e+00
1
Step 240000
Ar 9.263565e-01 0.000000e+00 0.000000e+00
1
Step 241000
Ar 8.743027e-01 0.000000e+00 0.000000e+00
1
Step 242000
Ar 9.175743e-01 0.000000e+00 0.000000e+00
1
Step 243000
Ar 1.097744e+00 0.000000e+00 0.000000e+00
1
Step 244000
Ar 1.077153e+00 0.000000e+00 0.000000e+00
1
Step 245000
Ar 9.486268e-01 0.000000e+00 0.000000e+00
1
Step 246000
Ar 9.635127e-01 0.000000e+00 0.000000e+00
1
Step 247000
Ar 1.110409e+00 0.000000e+00 0.000000e+00
1
Step 248000
Ar 1.078203e+00 0.000000e+00 0.000000e+00
1
Step 249000
Ar 1.019852e+00 0.000000e+00 0.000000e+00
1
Step 250000
Ar 9.630555e-01 0.000000e+00 0.000000e+00
1
Step 251000
Ar 1.106512e+00 0.000000e+00 0.000000e+00
1
Step 252000
Ar 9.980218e-01 0.000000e+00 0.000000e+00
1
Step 253000
Ar 8.755175e-01 0.000000e+00 0.000000e+00
1
Step 254000
Ar 1.072457e+00 0.000000e+00 0.000000e+00
1
Step 255000
Ar 1.064747e+00 0.000000e+00 0.000000e+00
1
Step 256000
Ar 9.750924e-01 0.000000e+00 0.000000e+00
1
Step 257000
Ar 9.627566e-01 0.000000e+00 0.000000e+00
1
Step 258000
Ar 8.800416e-01 0.000000e+00 0.000000e+00
1
Step 259000
Ar 1.045064e+00 0.000000e+00 0.000000e+00
1
Step 260000
Ar 1.104411e+00 0.000000e+00 0.000000e+00
1
Step 261000
Ar 9.743292e-01 0.000000e+00 0.000000e+00
1
Step 262000
Ar 9.222295e-01 0.000000e+00 0.000000e+00
1
Step 263000
Ar 1.053273e+00 0.000000e+00 0.000000e+00
1
Step 264000
Ar 1.050692e+00 0.000000e+00 0.000000e+00
1
Step 265000
Ar 9.047183e-01 0.000000e+00 0.000000e+00
1
Step 266000
Ar 9.066117e-01 0.000000e+00 0.000000e+00
1
Step 267000
Ar 1.026053e+00 0.000000e+00 0.000000e+00
1
Step 268000
Ar 1.091015e+00 0.000000e+00 0.000000e+00
1
Step 269000
Ar 1.008974e+00 0.000000e+00 0.000000e+00
1
Step 270000
Ar 1.068065e+00 0.000000e+00 0.000000e+00
1
Step 271000
Ar 8.800864e-01 0.000000e+00 0.000000e+00
1
Step 272000
Ar 9.569415e-01 0.000000e+00 0.000000e+00
1
Step 273000
Ar 1.110404e+00 0.000000e+00 0.000000e+00
1
Step 274000
Ar 9.761999e-01 0.000000e+00 0.000000e+00
1
Step 275000
Ar 9.279670e-01 0.000000e+00 0.000000e+00
1
Step 276000
Ar 9.473522e-01 0.000000e+00 0.000000e+00
1
Step 277000
Ar 1.147689e+00 0.000000e+00 0.000000e+00
1
Step 278000
Ar 1.090761e+00 0.000000e+00 0.000000e+00
1
Step 279000
Ar 9.159882e-01 0.000000e+00 0.000000e+00
1
Step 280000
Ar 8.317917e-01 0.000000e+00 0.000000e+00
1
Step 281000
Ar 9.588094e-01 0.000000e+00 0.000000e+00
1
Step 282000
Ar 1.133252e+00 0.000000e+00 0.000000e+00
1
Step 283000
Ar 7.957047e-01 0.000000e+00 0.000000e+00
1
Step 284000
Ar 1.063671e+00 0.000000e+00 0.000000e+00
1
Step 285000
Ar 8.141571e-01 0.000000e+00 0.000000e+00
1
Step 286000
Ar 9.172396e-01 0.000000e+00 0.000000e+00
1
Step 287000
Ar 8.243752e-01 0.000000e+00 0.000000e+00
1
Step 288000
Ar 8.528388e-01 0.000000e+00 0.000000e+00
1
Step 289000
Ar 1.287407e+00 0.000000e+00 0.000000e+00
1
Step 290000
Ar 9.594763e-01 0.000000e+00 0.000000e+00
1
Step 291000
Ar 1.097141e+00 0.000000e+00 0.000000e+00
1
Step 292000
Ar 9.450893e-01 0.000000e+00 0.000000e+00
1
Step 293000
Ar 9.655291e-01 0.000000e+00 0.000000e+00
1
Step 294000
Ar 1.005960e+00 0.000000e+00 0.000000e+00
1
Step 295000
Ar 9.453505e-01 0.000000e+00 0.000000e+00
1
Step 296000
Ar 1.103606e+00 0.000000e+00 0.000000e+00
1
Step 297000
Ar 7.246515e-01 0.000000e+00 0.000000e+00
1
Step 298000
Ar 1.046705e+00 0.000000e+00 0.000000e+00
1
Step 299000
Ar 1.069956e+00 0.000000e+00 0.000000e+00
1
Step 300000
Ar 1.063300e+00 0.000000e+00 0.000000e+00
1
Step 301000
Ar 1.030557e+00 0.000000e+00 0.000000e+00
1
Step 302000
Ar 1.251163e+00 0.000000e+00 0.000000e+00
1
Step 303000
Ar 8.898561e-01 0.000000e+00 0.000000e+00
1
Step 304000
Ar 1.011917e+00 0.000000e+00 0.000000e+00
1
Step 305000
Ar 8.480007e-01 0.000000e+00 0.000000e+00
1
Step 306000
Ar 8.948596e-01 0.000000e+00 0.000000e+00
1
Step 307000
Ar 1.101446e+00 0.000000e+00 0.000000e+00
1
Step 308000
Ar 8.978206e-01 0.000000e+00 0.000000e+00
1
Step 309000
Ar 1.097896e+00 0.000000e+00 0.000000e+00
1
Step 310000
Ar 8.837973e-01 0.000000e+00 0.000000e+00
1
Step 311000
Ar 8.593227e-01 0.000000e+00 0.000000e+00
1
Step 312000
Ar 1.154955e+00 0.000000e+00 0.000000e+00
1
Step 313000
Ar 9.896959e-01 0.000000e+00 0.000000e+00
1
Step 314000
Ar 9.616196e-01 0.000000e+00 0.000000e+00
1
Step 315000
Ar 9.132814e-01 0.000000e+00 0.000000e+00
1
Step 316000
Ar 9.062144e-01 0.000000e+00 0.000000e+00
1
Step 317000
Ar 9.370982e-01 0.000000e+00 0.000000e+00
1
Step 318000
Ar 1.004654e+00 0.000000e+00 0.000000e+00
1
Step 319000
Ar 9.384611e-01 0.000000e+00 0.000000e+00
1
Step 320000
Ar 8.651960e-01 0.000000e+00 0.000000e+00
1
Step 321000
Ar 7.958702e-01 0.000000e+00 0.000000e+00
1
Step 322000
Ar 9.644538e-01 0.000000e+00 0.000000e+00
1
Step 323000
Ar 8.937283e-01 0.000000e+00 0.000000e+00
1
Step 324000
Ar 8.142329e-01 0.000000e+00 0.000000e+00
1
Step 325000
Ar 9.463654e-01 0.000000e+00 0.000000e+00
1
Step 326000
Ar 8.846769e-01 0.000000e+00 0.000000e+00
1
Step 327000
Ar 1.031124e+00 0.000000e+00 0.000000e+00
1
Step 328000
Ar 9.244598e-01 0.000000e+00 0.000000e+00
1
Step 329000
Ar 9.857649e-01 0.000000e+00 0.000000e+00
1
Step 330000
Ar 1.057396e+00 0.000000e+00 0.000000e+00
1
Step 331000
Ar 1.075079e+00 0.000000e+00 0.000000e+00
1
Step 332000
Ar 1.185410e+00 0.000000e+00 0.000000e+00
1
Step 333000
Ar 1.098644e+00 0.000000e+00 0.000000e+00
1
Step 334000
Ar 9.989097e-01 0.000000e+00 0.000000e+00
1
Step 335000
Ar 1.218239e+00 0.000000e+00 0.000000e+00
1
Step 336000
Ar 7.848632e-01 0.000000e+00 0.000000e+00
1
Step 337000
Ar 1.005528e+00 0.000000e+00 0.000000e+00
1
Step 338000
Ar 9.587272e-01 0.000000e+00 0.000000e+00
1
Step 339000
Ar 1.121419e+00 0.000000e+00 0.000000e+00
1
Step 340000
Ar 1.140101e+00 0.000000e+00 0.000000e+00
1
Step 341000
Ar 9.668436e-01 0.000000e+00 0.000000e+00
1
Step 342000
Ar 1.074947e+00 0.000000e+00 0.000000e+00
1
Step 343000
Ar 9.072365e-01 0.000000e+00 0.000000e+00
1
Step 344000
Ar 9.248897e-01 0.000000e+00 0.000000e+00
1
Step 345000
Ar 9.890666e-01 0.000000e+00 0.000000e+00
1
Step 346000
Ar 1.012586e+00 0.000000e+00 0.000000e+00
1
Step 347000
Ar 1.149010e+00 0.000000e+00 0.000000e+00
1
Step 348000
Ar 9.911377e-01 0.000000e+00 0.000000e+00
1
Step 349000
Ar 9.333719e-01 0.000000e+00 0.000000e+00
1
Step 350000
Ar 8.563670e-01 0.000000e+00 0.000000e+00
1
Step 351000
Ar 1.034381e+00 0.000000e+00 0.000000e+00
1
Step 352000
Ar 1.112665e+00 0.000000e+00 0.000000e+00
1
Step 353000
Ar 1.126219e+00 0.000000e+00 0.000000e+00
1
Step 354000
Ar 1.018559e+00 0.000000e+00 0.000000e+00
1
Step 355000
Ar 9.203113e-01 0.000000e+00 0.000000e+00
1
Step 356000
Ar 9.731854e-01 0.000000e+00 0.000000e+00
1
Step 357000
Ar 1.059994e+00 0.000000e+00 0.000000e+00
1
Step 358000
Ar 1.001548e+00 0.000000e+00 0.000000e+00
1
Step 359000
Ar 8.846373e-01 0.000000e+00 0.000000e+00
1
Step 360000
Ar 9.649107e-01 0.000000e+00 0.000000e+00
1
Step 361000
Ar 1.143318e+00 0.000000e+00 0.000000e+00
1
Step 362000
Ar 8.227817e-01 0.000000e+00 0.000000e+00
1
Step 363000
Ar 1.169956e+00 0.000000e+00 0.000000e+00
1
Step 364000
Ar 9.378012e-01 0.000000e+00 0.000000e+00
1
Step 365000
Ar 1.116231e+00 0.000000e+00 0.000000e+00
1
Step 366000
Ar 1.141768e+00 0.000000e+00 0.000000e+00
1
Step 367000
Ar 9.050411e-01 0.000000e+00 0.000000e+00
1
Step 368000
Ar 9.710411e-01 0.000000e+00 0.000000e+00
1
Step 369000
Ar 1.076215e+00 0.000000e+00 0.000000e+00
1
Step 370000
Ar 9.790526e-01 0.000000e+00 0.000000e+00
1
Step 371000
Ar 9.645984e-01 0.000000e+00 0.000000e+00
1
Step 372000
Ar 8.943907e-01 0.000000e+00 0.000000e+00
1
Step 373000
Ar 9.847857e-01 0.000000e+00 0.000000e+00
1
Step 374000
Ar 1.003347e+00 0.000000e+00 0.000000e+00
1
Step 375000
Ar 1.049049e+00 0.000000e+00 0.000000e+00
1
Step 376000
Ar 9.103375e-01 0.000000e+00 0.000000e+00
1
Step 377000
Ar 1.011531e+00 0.000000e+00 0.000000e+00
1
Step 378000
Ar 9.391607e-01 0.000000e+00 0.000000e+00
1
Step 379000
Ar 9.289662e-01 0.000000e+00 0.000000e+00
1
Step 380000
Ar 8.770945e-01 0.000000e+00 0.000000e+00
1
Step 381000
Ar 9.596651e-01 0.000000e+00 0.000000e+00
1
Step 382000
Ar 9.650675e-01 0.000000e+00 0.000000e+00
1
Step 383000
Ar 1.033097e+00 0.000000e+00 0.000000e+00
1
Step 384000
Ar 9.888511e-01 0.000000e+00 0.000000e+00
1
Step 385000
Ar 1.049794e+00 0.000000e+00 0.000000e+00
1
Step 386000
Ar 9.633037e-01 0.000000e+00 0.000000e+00
1
Step 387000
Ar 1.014382e+00 0.000000e+00 0.000000e+00
1
Step 388000
Ar 1.083875e+00 0.000000e+00 0.000000e+00
1
Step 389000
Ar 7.629415e-01 0.000000e+00 0.000000e+00
1
Step 390000
Ar 8.852628e-01 0.000000e+00 0.000000e+00
1
Step 391000
Ar 9.869222e-01 0.000000e+00 0.000000e+00
1
Step 392000
Ar 8.160018e-01 0.000000e+00 0.000000e+00
1
Step 393000
Ar 9.353615e-01 0.000000e+00 0.000000e+00
1
Step 394000
Ar 9.927597e-01 0.000000e+00 0.000000e+00
1
Step 395000
Ar 9.629975e-01 0.000000e+00 0.000000e+00
1
Step 396000
Ar 8.417213e-01 0.000000e+00 0.000000e+00
1
Step 397000
Ar 1.057224e+00 0.000000e+00 0.000000e+00
1
Step 398000
Ar 8.698931e-01 0.000000e+00 0.000000e+00
1
Step 399000
Ar 1.047101e+00 0.000000e+00 0.000000e+00
1
Step 400000
Ar 1.268757e+00 0.000000e+00 0.000000e+00
1
Step 401000
Ar 9.306112e-01 0.000000e+00 0.000000e+00
1
Step 402000
Ar 1.030734e+00 0.000000e+00 0.000000e+00
1
Step 403000
Ar 9.864453e-01 0.000000e+00 0.000000e+00
1
Step 404000
Ar 9.235527e-01 0.000000e+00 0.000000e+00
1
Step 405000
Ar 1.083975e+00 0.000000e+00 0.000000e+00
1
Step 406000
Ar 9.631876e-01 0.000000e+00 0.000000e+00
1
Step 407000
Ar 1.011635e+00 0.000000e+00 0.000000e+00
1
Step 408000
Ar 1.169017e+00 0.000000e+00 0.000000e+00
1
Step 409000
Ar 8.350396e-01 0.000000e+00 0.000000e+00
1
Step 410000
Ar 8.886801e-01 0.000000e+00 0.000000e+00
1
Step 411000
Ar 1.154910e+00 0.000000e+00 0.000000e+00
1
Step 412000
Ar 9.051665e-01 0.000000e+00 0.000000e+00
1
Step 413000
Ar 9.124882e-01 0.000000e+00 0.000000e+00
1
Step 414000
Ar 9.755228e-01 0.000000e+00 0.000000e+00
1
Step 415000
Ar 9.918321e-01 0.000000e+00 0.000000e+00
1
Step 416000
Ar 9.573221e-01 0.000000e+00 0.000000e+00
1
Step 417000
Ar 8.011709e-01 0.000000e+00 0.000000e+00
1
Step 418000
Ar 1.050417e+00 0.000000e+00 0.000000e+00
1
Step 419000
Ar 1.070205e+00 0.000000e+00 0.000000e+00
1
Step 420000
Ar 9.030931e-01 0.000000e+00 0.000000e+00
1
Step 421000
Ar 1.066534e+00 0.000000e+00 0.000000e+00
1
Step 422000
Ar 1.099307e+00 0.000000e+00 0.000000e+00
1
Step 423000
Ar 1.016180e+00 0.000000e+00 0.000000e+00
1
Step 424000
Ar 9.833512e-01 0.000000e+00 0.000000e+00
1
Step 425000
Ar 1.005925e+00 0.000000e+00 0.000000e+00
1
Step 426000
Ar 9.369475e-01 0.000000e+00 0.000000e+00
1
Step 427000
Ar 8.645190e-01 0.000000e+00 0.000000e+00
1
Step 428000
Ar 8.392202e-01 0.000000e+00 0.000000e+00
1
Step 429000
Ar 1.132067e+00 0.000000e+00 0.000000e+00
1
Step 430000
Ar 1.290984e+00 0.000000e+00 0.000000e+00
1
Step 431000
Ar 9.504334e-01 0.000000e+00 0.000000e+00
1
Step 432000
Ar 8.799654e-01 0.000000e+00 0.000000e+00
1
Step 433000
Ar 1.065555e+00 0.000000e+00 0.000000e+00
1
Step 434000
Ar 1.032088e+00 0.000000e+00 0.000000e+00
1
Step 435000
Ar 9.254254e-01 0.000000e+00 0.000000e+00
1
Step 436000
Ar 1.100958e+00 0.000000e+00 0.000000e+00
1
Step 437000
Ar 1.270213e+00 0.000000e+00 0.000000e+00
1
Step 438000
Ar 9.392898e-01 0.000000e+00 0.000000e+00
1
Step 439000
Ar 8.368727e-01 0.000000e+00 0.000000e+00
1
Step 440000
Ar 9.091961e-01 0.000000e+00 0.000000e+00
1
Step 441000
Ar 1.009335e+00 0.000000e+00 0.000000e+00
1
Step 442000
Ar 1.145778e+00 0.000000e+00 0.000000e+00
1
Step 443000
Ar 1.195824e+00 0.000000e+00 0.000000e+00
1
Step 444000
Ar 7.958379e-01 0.000000e+00 0.000000e+00
1
Step 445000
Ar 1.060493e+00 0.000000e+00 0.000000e+00
1
Step 446000
Ar 1.181008e+00 0.000000e+00 0.000000e+00
1
Step 447000
Ar 1.069710e+00 0.000000e+00 0.000000e+00
1
Step 448000
Ar 9.176554e-01 0.000000e+00 0.000000e+00
1
Step 449000
Ar 9.457859e-01 0.000000e+00 0.000000e+00
1
Step 450000
Ar 8.237364e-01 0.000000e+00 0.000000e+00
1
Step 451000
Ar 1.163157e+00 0.000000e+00 0.000000e+00
1
Step 452000
Ar 9.556896e-01 0.000000e+00 0.000000e+00
1
Step 453000
Ar 1.064027e+00 0.000000e+00 0.000000e+00
1
Step 454000
Ar 8.689018e-01 0.000000e+00 0.000000e+00
1
Step 455000
Ar 9.949104e-01 0.000000e+00 0.000000e+00
1
Step 456000
Ar 9.947719e-01 0.000000e+00 0.000000e+00
1
Step 457000
Ar 9.105510e-01 0.000000e+00 0.000000e+00
1
Step 458000
Ar 6.595298e-01 0.000000e+00 0.000000e+00
1
Step 459000
Ar 8.731264e-01 0.000000e+00 0.000000e+00
1
Step 460000
Ar 1.093908e+00 0.000000e+00 0.000000e+00
1
Step 461000
Ar 9.753967e-01 0.000000e+00 0.000000e+00
1
Step 462000
Ar 7.969267e-01 0.000000e+00 0.000000e+00
1
Step 463000
Ar 1.007572e+00 0.000000e+00 0.000000e+00
1
Step 464000
Ar 1.067375e+00 0.000000e+00 0.000000e+00
1
Step 465000
Ar 6.820291e-01 0.000000e+00 0.000000e+00
1
Step 466000
Ar 8.985502e-01 0.000000e+00 0.000000e+00
1
Step 467000
Ar 8.306656e-01 0.000000e+00 0.000000e+00
1
Step 468000
Ar 8.028550e-01 0.000000e+00 0.000000e+00
1
Step 469000
Ar 1.080933e+00 0.000000e+00 0.000000e+00
1
Step 470000
Ar 1.052869e+00 0.000000e+00 0.000000e+00
1
Step 471000
Ar 8.734977e-01 0.000000e+00 0.000000e+00
1
Step 472000
Ar 8.262073e-01 0.000000e+00 0.000000e+00
1
Step 473000
Ar 9.072120e-01 0.000000e+00 0.000000e+00
1
Step 474000
Ar 8.853159e-01 0.000000e+00 0.000000e+00
1
Step 475000
Ar 1.022776e+00 0.000000e+00 0.000000e+00
1
Step 476000
Ar 9.874030e-01 0.000000e+00 0.000000e+00
1
Step 477000
Ar 1.078571e+00 0.000000e+00 0.000000e+00
1
Step 478000
Ar 9.423324e-01 0.000000e+00 0.000000e+00
1
Step 479000
Ar 1.068073e+00 0.000000e+00 0.000000e+00
1
Step 480000
Ar 1.087774e+00 0.000000e+00 0.000000e+00
1
Step 481000
Ar 1.200975e+00 0.000000e+00 0.000000e+00
1
Step 482000
Ar 9.990353e-01 0.000000e+00 0.000000e+00
1
Step 483000
Ar 9.187383e-01 0.000000e+00 0.000000e+00
1
Step 484000
Ar 1.114051e+00 0.000000e+00 0.000000e+00
1
Step 485000
Ar 1.049855e+00 0.000000e+00 0.000000e+00
1
Step 486000
Ar 1.090386e+00 0.000000e+00 0.000000e+00
1
Step 487000
Ar 1.014997e+00 0.000000e+00 0.000000e+00
1
Step 488000
Ar 8.638115e-01 0.000000e+00 0.000000e+00
1
Step 489000
Ar 1.038031e+00 0.000000e+00 0.000000e+00
1
Step 490000
Ar 9.478994e-01 0.000000e+00 0.000000e+00
1
Step 491000
Ar 1.005329e+00 0.000000e+00 0.000000e+00
1
Step 492000
Ar 1.148458e+00 0.000000e+00 0.000000e+00
1
Step 493000
Ar 1.040365e+00 0.000000e+00 0.000000e+00
1
Step 494000
Ar 9.416722e-01 0.000000e+00 0.000000e+00
1
Step 495000
Ar 1.125083e+00 0.000000e+00 0.000000e+00
1
Step 496000
Ar 8.118234e-01 0.000000e+00 0.000000e+00
1
Step 497000
Ar 9.627580e-01 0.000000e+00 0.000000e+00
1
Step 498000
Ar 1.031974e+00 0.000000e+00 0.000000e+00
1
Step 499000
Ar 8.105104e-01 0.000000e+00 0.000000e+00
1
Step 500000
Ar 1.027379e+00 0.000000e+00 0.000000e+00
1
Step 501000
Ar 1.012475e+00 0.000000e+00 0.000000e+00
1
Step 502000
Ar 9.398084e-01 0.000000e+00 0.000000e+00
1
Step 503000
Ar 1.075147e+00 0.000000e+00 0.000000e+00
1
Step 504000
Ar 9.107497e-01 0.000000e+00 0.000000e+00
1
Step 505000
Ar 1.093354e+00 0.000000e+00 0.000000e+00
1
Step 506000
Ar 1.003080e+00 0.000000e+00 0.000000e+00
1
Step 507000
Ar 1.033579e+00 0.000000e+00 0.000000e+00
1
Step 508000
Ar 9.871282e-01 0.000000e+00 0.000000e+00
1
Step 509000
Ar 8.317722e-01 0.000000e+00 0.000000e+00
1
Step 510000
Ar 1.111640e+00 0.000000e+00 0.000000e+00
1
Step 511000
Ar 1.028611e+00 0.000000e+00 0.000000e+00
1
Step 512000
Ar 1.021999e+00 0.000000e+00 0.000000e+00
1
Step 513000
Ar 1.043602e+00 0.000000e+00 0.000000e+00
1
Step 514000
Ar 1.171219e+00 0.000000e+00 0.000000e+00
1
Step 515000
Ar 1.121303e+00 0.000000e+00 0.000000e+00
1
Step 516000
Ar 8.736345e-01 0.000000e+00 0.000000e+00
1
Step 517000
Ar 8.919846e-01 0.000000e+00 0.000000e+00
1
Step 518000
Ar 1.105143e+00 0.000000e+00 0.000000e+00
1
Step 519000
Ar 1.026465e+00 0.000000e+00 0.000000e+00
1
Step 520000
Ar 9.638828e-01 0.000000e+00 0.000000e+00
1
Step 521000
Ar 8.883672e-01 0.000000e+00 0.000000e+00
1
Step 522000
Ar 9.774605e-01 0.000000e+00 0.000000e+00
1
Step 523000
Ar 1.023686e+00 0.000000e+00 0.000000e+00
1
Step 524000
Ar 1.106658e+00 0.000000e+00 0.000000e+00
1
Step 525000
Ar 1.193185e+00 0.000000e+00 0.000000e+00
1
Step 526000
Ar 1.154117e+00 0.000000e+00 0.000000e+00
1
Step 527000
Ar 1.060421e+00 0.000000e+00 0.000000e+00
1
Step 528000
Ar 7.874815e-01 0.000000e+00 0.000000e+00
1
Step 529000
Ar 1.229395e+00 0.000000e+00 0.000000e+00
1
Step 530000
Ar 9.968259e-01 0.000000e+00 0.000000e+00
1
Step 531000
Ar 1.021710e+00 0.000000e+00 0.000000e+00
1
Step 532000
Ar 1.001006e+00 0.000000e+00 0.000000e+00
1
Step 533000
Ar 1.123780e+00 0.000000e+00 0.000000e+00
1
Step 534000
Ar 1.059861e+00 0.000000e+00 0.000000e+00
1
Step 535000
Ar 1.174981e+00 0.000000e+00 0.000000e+00
1
Step 536000
Ar 1.036064e+00 0.000000e+00 0.000000e+00
1
Step 537000
Ar 8.800173e-01 0.000000e+00 0.000000e+00
1
Step 538000
Ar 8.788068e-01 0.000000e+00 0.000000e+00
1
Step 539000
Ar 1.132624e+00 0.000000e+00 0.000000e+00
1
Step 540000
Ar 1.032966e+00 0.000000e+00 0.000000e+00
1
Step 541000
Ar 1.119201e+00 0.000000e+00 0.000000e+00
1
Step 542000
Ar 9.157590e-01 0.000000e+00 0.000000e+00
1
Step 543000
Ar 1.131628e+00 0.000000e+00 0.000000e+00
1
Step 544000
Ar 8.348497e-01 0.000000e+00 0.000000e+00
1
Step 545000
Ar 1.101717e+00 0.000000e+00 0.000000e+00
1
Step 546000
Ar 1.107242e+00 0.000000e+00 0.000000e+00
1
Step 547000
Ar 1.126610e+00 0.000000e+00 0.000000e+00
1
Step 548000
Ar 1.071764e+00 0.000000e+00 0.000000e+00
1
Step 549000
Ar 8.671185e-01 0.000000e+00 0.000000e+00
1
Step 550000
Ar 9.252184e-01 0.000000e+00 0.000000e+00
1
Step 551000
Ar 1.269937e+00 0.000000e+00 0.000000e+00
1
Step 552000
Ar 9.780868e-01 0.000000e+00 0.000000e+00
1
Step 553000
Ar 1.084328e+00 0.000000e+00 0.000000e+00
1
Step 554000
Ar 1.004673e+00 0.000000e+00 0.000000e+00
1
Step 555000
Ar 8.986695e-01 0.000000e+00 0.000000e+00
1
Step 556000
Ar 8.353963e-01 0.000000e+00 0.000000e+00
1
Step 557000
Ar 8.759911e-01 0.000000e+00 0.000000e+00
1
Step 558000
Ar 9.444709e-01 0.000000e+00 0.000000e+00
1
Step 559000
Ar 1.101524e+00 0.000000e+00 0.000000e+00
1
Step 560000
Ar 8.777432e-01 0.000000e+00 0.000000e+00
1
Step 561000
Ar 8.379038e-01 0.000000e+00 0.000000e+00
1
Step 562000
Ar 1.107007e+00 0.000000e+00 0.000000e+00
1
Step 563000
Ar 9.529583e-01 0.000000e+00 0.000000e+00
1
Step 564000
Ar 1.199964e+00 0.000000e+00 0.000000e+00
1
Step 565000
Ar 1.007455e+00 0.000000e+00 0.000000e+00
1
Step 566000
Ar 8.352428e-01 0.000000e+00 0.000000e+00
1
Step 567000
Ar 9.028194e-01 0.000000e+00 0.000000e+00
1
Step 568000
Ar 7.925260e-01 0.000000e+00 0.000000e+00
1
Step 569000
Ar 9.553393e-01 0.000000e+00 0.000000e+00
1
Step 570000
Ar 8.686496e-01 0.000000e+00 0.000000e+00
1
Step 571000
Ar 1.166212e+00 0.000000e+00 0.000000e+00
1
Step 572000
Ar 1.026355e+00 0.000000e+00 0.000000e+00
1
Step 573000
Ar 9.808315e-01 0.000000e+00 0.000000e+00
1
Step 574000
Ar 9.638275e-01 0.000000e+00 0.000000e+00
1
Step 575000
Ar 9.167073e-01 0.000000e+00 0.000000e+00
1
Step 576000
Ar 1.119872e+00 0.000000e+00 0.000000e+00
1
Step 577000
Ar 1.065751e+00 0.000000e+00 0.000000e+00
1
Step 578000
Ar 9.046476e-01 0.000000e+00 0.000000e+00
1
Step 579000
Ar 8.639056e-01 0.000000e+00 0.000000e+00
1
Step 580000
Ar 9.487849e-01 0.000000e+00 0.000000e+00
1
Step 581000
Ar 1.081663e+00 0.000000e+00 0.000000e+00
1
Step 582000
Ar 1.057150e+00 0.000000e+00 0.000000e+00
1
Step 583000
Ar 1.153627e+00 0.000000e+00 0.000000e+00
1
Step 584000
Ar 9.988175e-01 0.000000e+00 0.000000e+00
1
Step 585000
Ar 1.074377e+00 0.000000e+00 0.000000e+00
1
Step 586000
Ar 9.071698e-01 0.000000e+00 0.000000e+00
1
Step 587000
Ar 9.852516e-01 0.000000e+00 0.000000e+00
1
Step 588000
Ar 1.034810e+00 0.000000e+00 0.000000e+00
1
Step 589000
Ar 9.432323e-01 0.000000e+00 0.000000e+00
1
Step 590000
Ar 1.021545e+00 0.000000e+00 0.000000e+00
1
Step 591000
Ar 1.103398e+00 0.000000e+00 0.000000e+00
1
Step 592000
Ar 1.109533e+00 0.000000e+00 0.000000e+00
1
Step 593000
Ar 1.028471e+00 0.000000e+00 0.000000e+00
1
Step 594000
Ar 1.128925e+00 0.000000e+00 0.000000e+00
1
Step 595000
Ar 8.787168e-01 0.000000e+00 0.000000e+00
1
Step 596000
Ar 1.112413e+00 0.000000e+00 0.000000e+00
1
Step 597000
Ar 1.130064e+00 0.000000e+00 0.000000e+00
1
Step 598000
Ar 9.371629e-01 0.000000e+00 0.000000e+00
1
Step 599000
Ar 1.099943e+00 0.000000e+00 0.000000e+00
1
Step 600000
Ar 8.119985e-01 0.000000e+00 0.000000e+00
1
Step 601000
Ar 1.047241e+00 0.000000e+00 0.000000e+00
1
Step 602000
Ar 7.951091e-01 0.000000e+00 0.000000e+00
1
Step 603000
Ar 1.133027e+00 0.000000e+00 0.000000e+00
1
Step 604000
Ar 1.071928e+00 0.000000e+00 0.000000e+00
1
Step 605000
Ar 1.137277e+00 0.000000e+00 0.000000e+00
1
Step 606000
Ar 1.055007e+00 0.000000e+00 0.000000e+00
1
Step 607000
Ar 9.178974e-01 0.000000e+00 0.000000e+00
1
Step 608000
Ar 1.018609e+00 0.000000e+00 0.000000e+00
1
Step 609000
Ar 6.773035e-01 0.000000e+00 0.000000e+00
1
Step 610000
Ar 1.187283e+00 0.000000e+00 0.000000e+00
1
Step 611000
Ar 9.535717e-01 0.000000e+00 0.000000e+00
1
Step 612000
Ar 1.038515e+00 0.000000e+00 0.000000e+00
1
Step 613000
Ar 1.119575e+00 0.000000e+00 0.000000e+00
1
Step 614000
Ar 1.101453e+00 0.000000e+00 0.000000e+00
1
Step 615000
Ar 9.661885e-01 0.000000e+00 0.000000e+00
1
Step 616000
Ar 8.825287e-01 0.000000e+00 0.000000e+00
1
Step 617000
Ar 8.156144e-01 0.000000e+00 0.000000e+00
1
Step 618000
Ar 9.566499e-01 0.000000e+00 0.000000e+00
1
Step 619000
Ar 9.772306e-01 0.000000e+00 0.000000e+00
1
Step 620000
Ar 1.061762e+00 0.000000e+00 0.000000e+00
1
Step 621000
Ar 8.730581e-01 0.000000e+00 0.000000e+00
1
Step 622000
Ar 1.050950e+00 0.000000e+00 0.000000e+00
1
Step 623000
Ar 1.085009e+00 0.000000e+00 0.000000e+00
1
Step 624000
Ar 1.033193e+00 0.000000e+00 0.000000e+00
1
Step 625000
Ar 1.121670e+00 0.000000e+00 0.000000e+00
1
Step 626000
Ar 1.034384e+00 0.000000e+00 0.000000e+00
1
Step 627000
Ar 8.900500e-01 0.000000e+00 0.000000e+00
1
Step 628000
Ar 9.617607e-01 0.000000e+00 0.000000e+00
1
Step 629000
Ar 1.006540e+00 0.000000e+00 0.000000e+00
1
Step 630000
Ar 1.028978e+00 0.000000e+00 0.000000e+00
1
Step 631000
Ar 1.047634e+00 0.000000e+00 0.000000e+00
1
Step 632000
Ar 9.185989e-01 0.000000e+00 0.000000e+00
1
Step 633000
Ar 8.595424e-01 0.000000e+00 0.000000e+00
1
Step 634000
Ar 9.880039e-01 0.000000e+00 0.000000e+00
1
Step 635000
Ar 9.526700e-01 0.000000e+00 0.000000e+00
1
Step 636000
Ar 9.713963e-01 0.000000e+00 0.000000e+00
1
Step 637000
Ar 9.648175e-01 0.000000e+00 0.000000e+00
1
Step 638000
Ar 1.076725e+00 0.000000e+00 0.000000e+00
1
Step 639000
Ar 1.109286e+00 0.000000e+00 0.000000e+00
1
Step 640000
Ar 9.433164e-01 0.000000e+00 0.000000e+00
1
Step 641000
Ar 8.744367e-01 0.000000e+00 0.000000e+00
1
Step 642000
Ar 1.080881e+00 0.000000e+00 0.000000e+00
1
Step 643000
Ar 9.201444e-01 0.000000e+00 0.000000e+00
1
Step 644000
Ar 1.210851e+00 0.000000e+00 0.000000e+00
1
Step 645000
Ar 8.425410e-01 0.000000e+00 0.000000e+00
1
Step 646000
Ar 1.020692e+00 0.000000e+00 0.000000e+00
1
Step 647000
Ar 1.014189e+00 0.000000e+00 0.000000e+00
1
Step 648000
Ar 9.756081e-01 0.000000e+00 0.000000e+00
1
Step 649000
Ar 9.971023e-01 0.000000e+00 0.000000e+00
1
Step 650000
Ar 1.085732e+00 0.000000e+00 0.000000e+00
1
Step 651000
Ar 9.725672e-01 0.000000e+00 0.000000e+00
1
Step 652000
Ar 9.878464e-01 0.000000e+00 0.000000e+00
1
Step 653000
Ar 9.378154e-01 0.000000e+00 0.000000e+00
1
Step 654000
Ar 7.583207e-01 0.000000e+00 0.000000e+00
1
Step 655000
Ar 1.033099e+00 0.000000e+00 0.000000e+00
1
Step 656000
Ar 1.189596e+00 0.000000e+00 0.000000e+00
1
Step 657000
Ar 9.225136e-01 0.000000e+00 0.000000e+00
1
Step 658000
Ar 9.936631e-01 0.000000e+00 0.000000e+00
1
Step 659000
Ar 7.414352e-01 0.000000e+00 0.000000e+00
1
Step 660000
Ar 1.140907e+00 0.000000e+00 0.000000e+00
1
Step 661000
Ar 9.988899e-01 0.000000e+00 0.000000e+00
1
Step 662000
Ar 1.023516e+00 0.000000e+00 0.000000e+00
1
Step 663000
Ar 8.859342e-01 0.000000e+00 0.000000e+00
1
Step 664000
Ar 1.065259e+00 0.000000e+00 0.000000e+00
1
Step 665000
Ar 8.606027e-01 0.000000e+00 0.000000e+00
1
Step 666000
Ar 8.054999e-01 0.000000e+00 0.000000e+00
1
Step 667000
Ar 1.034590e+00 0.000000e+00 0.000000e+00
1
Step 668000
Ar 1.029329e+00 0.000000e+00 0.000000e+00
1
Step 669000
Ar 9.000299e-01 0.000000e+00 0.000000e+00
1
Step 670000
Ar 9.639645e-01 0.000000e+00 0.000000e+00
1
Step 671000
Ar 9.803526e-01 0.000000e+00 0.000000e+00
1
Step 672000
Ar 7.482435e-01 0.000000e+00 0.000000e+00
1
Step 673000
Ar 7.977103e-01 0.000000e+00 0.000000e+00
1
Step 674000
Ar 7.946115e-01 0.000000e+00 0.000000e+00
1
Step 675000
Ar 9.988970e-01 0.000000e+00 0.000000e+00
1
Step 676000
Ar 9.140506e-01 0.000000e+00 0.000000e+00
1
Step 677000
Ar 1.027904e+00 0.000000e+00 0.000000e+00
1
Step 678000
Ar 8.436957e-01 0.000000e+00 0.000000e+00
1
Step 679000
Ar 8.825375e-01 0.000000e+00 0.000000e+00
1
Step 680000
Ar 1.133065e+00 0.000000e+00 0.000000e+00
1
Step 681000
Ar 1.125340e+00 0.000000e+00 0.000000e+00
1
Step 682000
Ar 8.930268e-01 0.000000e+00 0.000000e+00
1
Step 683000
Ar 1.071952e+00 0.000000e+00 0.000000e+00
1
Step 684000
Ar 1.136889e+00 0.000000e+00 0.000000e+00
1
Step 685000
Ar 7.651908e-01 0.000000e+00 0.000000e+00
1
Step 686000
Ar 7.506869e-01 0.000000e+00 0.000000e+00
1
Step 687000
Ar 1.043392e+00 0.000000e+00 0.000000e+00
1
Step 688000
Ar 1.004104e+00 0.000000e+00 0.000000e+00
1
Step 689000
Ar 9.570720e-01 0.000000e+00 0.000000e+00
1
Step 690000
Ar 1.123044e+00 0.000000e+00 0.000000e+00
1
Step 691000
Ar 1.016852e+00 0.000000e+00 0.000000e+00
1
Step 692000
Ar 1.043198e+00 0.000000e+00 0.000000e+00
1
Step 693000
Ar 6.873151e-01 0.000000e+00 0.000000e+00
1
Step 694000
Ar 9.481385e-01 0.000000e+00 0.000000e+00
1
Step 695000
Ar 1.108617e+00 0.000000e+00 0.000000e+00
1
Step 696000
Ar 9.470905e-01 0.000000e+00 0.000000e+00
1
Step 697000
Ar 8.342869e-01 0.000000e+00 0.000000e+00
1
Step 698000
Ar 9.571360e-01 0.000000e+00 0.000000e+00
1
Step 699000
Ar 1.051164e+00 0.000000e+00 0.000000e+00
1
Step 700000
Ar 1.123558e+00 0.000000e+00 0.000000e+00
1
Step 701000
Ar 8.816161e-01 0.000000e+00 0.000000e+00
1
Step 702000
Ar 1.141556e+00 0.000000e+00 0.000000e+00
1
Step 703000
Ar 8.179227e-01 0.000000e+00 0.000000e+00
1
Step 704000
Ar 7.089060e-01 0.000000e+00 0.000000e+00
1
Step 705000
Ar 1.013793e+00 0.000000e+00 0.000000e+00
1
Step 706000
Ar 1.010473e+00 0.000000e+00 0.000000e+00
1
Step 707000
Ar 8.845555e-01 0.000000e+00 0.000000e+00
1
Step 708000
Ar 1.171326e+00 0.000000e+00 0.000000e+00
1
Step 709000
Ar 1.114824e+00 0.000000e+00 0.000000e+00
1
Step 710000
Ar 1.064481e+00 0.000000e+00 0.000000e+00
1
Step 711000
Ar 1.005752e+00 0.000000e+00 0.000000e+00
1
Step 712000
Ar 1.079794e+00 0.000000e+00 0.000000e+00
1
Step 713000
Ar 8.464068e-01 0.000000e+00 0.000000e+00
1
Step 714000
Ar 1.102828e+00 0.000000e+00 0.000000e+00
1
Step 715000
Ar 9.180586e-01 0.000000e+00 0.000000e+00
1
Step 716000
Ar 1.007955e+00 0.000000e+00 0.000000e+00
1
Step 717000
Ar 8.592679e-01 0.000000e+00 0.000000e+00
1
Step 718000
Ar 8.101589e-01 0.000000e+00 0.000000e+00
1
Step 719000
Ar 9.863825e-01 0.000000e+00 0.000000e+00
1
Step 720000
Ar 1.103316e+00 0.000000e+00 0.000000e+00
1
Step 721000
Ar 7.931986e-01 0.000000e+00 0.000000e+00
1
Step 722000
Ar 1.028460e+00 0.000000e+00 0.000000e+00
1
Step 723000
Ar 1.053787e+00 0.000000e+00 0.000000e+00
1
Step 724000
Ar 9.973245e-01 0.000000e+00 0.000000e+00
1
Step 725000
Ar 8.116095e-01 0.000000e+00 0.000000e+00
1
Step 726000
Ar 8.933049e-01 0.000000e+00 0.000000e+00
1
Step 727000
Ar 9.983718e-01 0.000000e+00 0.000000e+00
1
Step 728000
Ar 1.085740e+00 0.000000e+00 0.000000e+00
1
Step 729000
Ar 8.625780e-01 0.000000e+00 0.000000e+00
1
Step 730000
Ar 1.103937e+00 0.000000e+00 0.000000e+00
1
Step 731000
Ar 1.099265e+00 0.000000e+00 0.000000e+00
1
Step 732000
Ar 8.424785e-01 0.000000e+00 0.000000e+00
1
Step 733000
Ar 1.059809e+00 0.000000e+00 0.000000e+00
1
Step 734000
Ar 8.822456e-01 0.000000e+00 0.000000e+00
1
Step 735000
Ar 8.183668e-01 0.000000e+00 0.000000e+00
1
Step 736000
Ar 1.094023e+00 0.000000e+00 0.000000e+00
1
Step 737000
Ar 1.020774e+00 0.000000e+00 0.000000e+00
1
Step 738000
Ar 9.996245e-01 0.000000e+00 0.000000e+00
1
Step 739000
Ar 9.505000e-01 0.000000e+00 0.000000e+00
1
Step 740000
Ar 1.002701e+00 0.000000e+00 0.000000e+00
1
Step 741000
Ar 7.420738e-01 0.000000e+00 0.000000e+00
1
Step 742000
Ar 7.877045e-01 0.000000e+00 0.000000e+00
1
Step 743000
Ar 1.121484e+00 0.000000e+00 0.000000e+00
1
Step 744000
Ar 8.022633e-01 0.000000e+00 0.000000e+00
1
Step 745000
Ar 9.208977e-01 0.000000e+00 0.000000e+00
1
Step 746000
Ar 1.028867e+00 0.000000e+00 0.000000e+00
1
Step 747000
Ar 1.012659e+00 0.000000e+00 0.000000e+00
1
Step 748000
Ar 9.096251e-01 0.000000e+00 0.000000e+00
1
Step 749000
Ar 8.785069e-01 0.000000e+00 0.000000e+00
1
Step 750000
Ar 9.576680e-01 0.000000e+00 0.000000e+00
1
Step 751000
Ar 1.101440e+00 0.000000e+00 0.000000e+00
1
Step 752000
Ar 1.190174e+00 0.000000e+00 0.000000e+00
1
Step 753000
Ar 9.638748e-01 0.000000e+00 0.000000e+00
1
Step 754000
Ar 1.029568e+00 0.000000e+00 0.000000e+00
1
Step 755000
Ar 1.123604e+00 0.000000e+00 0.000000e+00
1
Step 756000
Ar 8.249114e-01 0.000000e+00 0.000000e+00
1
Step 757000
Ar 9.146358e-01 0.000000e+00 0.000000e+00
1
Step 758000
Ar 1.116929e+00 0.000000e+00 0.000000e+00
1
Step 759000
Ar 9.561467e-01 0.000000e+00 0.000000e+00
1
Step 760000
Ar 1.031782e+00 0.000000e+00 0.000000e+00
1
Step 761000
Ar 1.175594e+00 0.000000e+00 0.000000e+00
1
Step 762000
Ar 1.167557e+00 0.000000e+00 0.000000e+00
1
Step 763000
Ar 9.199849e-01 0.000000e+00 0.000000e+00
1
Step 764000
Ar 9.385523e-01 0.000000e+00 0.000000e+00
1
Step 765000
Ar 1.088318e+00 0.000000e+00 0.000000e+00
1
Step 766000
Ar 1.068624e+00 0.000000e+00 0.000000e+00
1
Step 767000
Ar 9.352621e-01 0.000000e+00 0.000000e+00
1
Step 768000
Ar 1.006067e+00 0.000000e+00 0.000000e+00
1
Step 769000
Ar 9.854874e-01 0.000000e+00 0.000000e+00
1
Step 770000
Ar 6.275938e-01 0.000000e+00 0.000000e+00
1
Step 771000
Ar 1.059071e+00 0.000000e+00 0.000000e+00
1
Step 772000
Ar 8.745561e-01 0.000000e+00 0.000000e+00
1
Step 773000
Ar 9.815185e-01 0.000000e+00 0.000000e+00
1
Step 774000
Ar 1.244801e+00 0.000000e+00 0.000000e+00
1
Step 775000
Ar 1.042274e+00 0.000000e+00 0.000000e+00
1
Step 776000
Ar 9.650085e-01 0.000000e+00 0.000000e+00
1
Step 777000
Ar 9.301294e-01 0.000000e+00 0.000000e+00
1
Step 778000
Ar 1.115437e+00 0.000000e+00 0.000000e+00
1
Step 779000
Ar 8.586042e-01 0.000000e+00 0.000000e+00
1
Step 780000
Ar 9.224827e-01 0.000000e+00 0.000000e+00
1
Step 781000
Ar 1.071857e+00 0.000000e+00 0.000000e+00
1
Step 782000
Ar 7.982774e-01 0.000000e+00 0.000000e+00
1
Step 783000
Ar 9.702189e-01 0.000000e+00 0.000000e+00
1
Step 784000
Ar 9.301575e-01 0.000000e+00 0.000000e+00
1
Step 785000
Ar 1.084246e+00 0.000000e+00 0.000000e+00
1
Step 786000
Ar 9.854594e-01 0.000000e+00 0.000000e+00
1
Step 787000
Ar 1.017174e+00 0.000000e+00 0.000000e+00
1
Step 788000
Ar 9.505867e-01 0.000000e+00 0.000000e+00
1
Step 789000
Ar 9.814620e-01 0.000000e+00 0.000000e+00
1
Step 790000
Ar 1.020680e+00 0.000000e+00 0.000000e+00
1
Step 791000
Ar 1.006486e+00 0.000000e+00 0.000000e+00
1
Step 792000
Ar 9.140162e-01 0.000000e+00 0.000000e+00
1
Step 793000
Ar 9.803952e-01 0.000000e+00 0.000000e+00
1
Step 794000
Ar 9.484256e-01 0.000000e+00 0.000000e+00
1
Step 795000
Ar 7.673490e-01 0.000000e+00 0.000000e+00
1
Step 796000
Ar 1.029099e+00 0.000000e+00 0.000000e+00
1
Step 797000
Ar 9.566757e-01 0.000000e+00 0.000000e+00
1
Step 798000
Ar 1.030245e+00 0.000000e+00 0.000000e+00
1
Step 799000
Ar 1.044804e+00 0.000000e+00 0.000000e+00
1
Step 800000
Ar 1.061480e+00 0.000000e+00 0.000000e+00
1
Step 801000
Ar 9.489099e-01 0.000000e+00 0.000000e+00
1
Step 802000
Ar 9.197433e-01 0.000000e+00 0.000000e+00
1
Step 803000
Ar 1.003172e+00 0.000000e+00 0.000000e+00
1
Step 804000
Ar 6.865679e-01 0.000000e+00 0.000000e+00
1
Step 805000
Ar 9.926725e-01 0.000000e+00 0.000000e+00
1
Step 806000
Ar 1.162962e+00 0.000000e+00 0.000000e+00
1
Step 807000
Ar 7.435404e-01 0.000000e+00 0.000000e+00
1
Step 808000
Ar 1.037206e+00 0.000000e+00 0.000000e+00
1
Step 809000
Ar 8.432306e-01 0.000000e+00 0.000000e+00
1
Step 810000
Ar 1.105834e+00 0.000000e+00 0.000000e+00
1
Step 811000
Ar 9.019776e-01 0.000000e+00 0.000000e+00
1
Step 812000
Ar 1.004607e+00 0.000000e+00 0.000000e+00
1
Step 813000
Ar 1.023899e+00 0.000000e+00 0.000000e+00
1
Step 814000
Ar 1.223389e+00 0.000000e+00 0.000000e+00
1
Step 815000
Ar 9.914579e-01 0.000000e+00 0.000000e+00
1
Step 816000
Ar 1.015703e+00 0.000000e+00 0.000000e+00
1
Step 817000
Ar 1.097521e+00 0.000000e+00 0.000000e+00
1
Step 818000
Ar 6.620378e-01 0.000000e+00 0.000000e+00
1
Step 819000
Ar 7.901311e-01 0.000000e+00 0.000000e+00
1
Step 820000
Ar 6.775022e-01 0.000000e+00 0.000000e+00
1
Step 821000
Ar 8.956862e-01 0.000000e+00 0.000000e+00
1
Step 822000
Ar 8.320756e-01 0.000000e+00 0.000000e+00
1
Step 823000
Ar 1.027864e+00 0.000000e+00 0.000000e+00
1
Step 824000
Ar 1.118280e+00 0.000000e+00 0.000000e+00
1
Step 825000
Ar 1.050535e+00 0.000000e+00 0.000000e+00
1
Step 826000
Ar 1.022437e+00 0.000000e+00 0.000000e+00
1
Step 827000
Ar 1.017641e+00 0.000000e+00 0.000000e+00
1
Step 828000
Ar 8.656873e-01 0.000000e+00 0.000000e+00
1
Step 829000
Ar 9.756547e-01 0.000000e+00 0.000000e+00
1
Step 830000
Ar 1.109445e+00 0.000000e+00 0.000000e+00
1
Step 831000
Ar 8.403620e-01 0.000000e+00 0.000000e+00
1
Step 832000
Ar 9.431104e-01 0.000000e+00 0.000000e+00
1
Step 833000
Ar 1.022149e+00 0.000000e+00 0.000000e+00
1
Step 834000
Ar 9.604741e-01 0.000000e+00 0.000000e+00
1
Step 835000
Ar 1.031124e+00 0.000000e+00 0.000000e+00
1
Step 836000
Ar 1.120213e+00 0.000000e+00 0.000000e+00
1
Step 837000
Ar 9.501802e-01 0.000000e+00 0.000000e+00
1
Step 838000
Ar 9.965454e-01 0.000000e+00 0.000000e+00
1
Step 839000
Ar 8.735583e-01 0.000000e+00 0.000000e+00
1
Step 840000
Ar 1.125022e+00 0.000000e+00 0.000000e+00
1
Step 841000
Ar 9.262773e-01 0.000000e+00 0.000000e+00
1
Step 842000
Ar 6.649797e-01 0.000000e+00 0.000000e+00
1
Step 843000
Ar 1.091208e+00 0.000000e+00 0.000000e+00
1
Step 844000
Ar 9.956481e-01 0.000000e+00 0.000000e+00
1
Step 845000
Ar 1.066499e+00 0.000000e+00 0.000000e+00
1
Step 846000
Ar 1.121842e+00 0.000000e+00 0.000000e+00
1
Step 847000
Ar 1.018693e+00 0.000000e+00 0.000000e+00
1
Step 848000
Ar 1.037489e+00 0.000000e+00 0.000000e+00
1
Step 849000
Ar 8.902111e-01 0.000000e+00 0.000000e+00
1
Step 850000
Ar 8.045142e-01 0.000000e+00 0.000000e+00
1
Step 851000
Ar 1.101866e+00 0.000000e+00 0.000000e+00
1
Step 852000
Ar 1.063820e+00 0.000000e+00 0.000000e+00
1
Step 853000
Ar 7.489607e-01 0.000000e+00 0.000000e+00
1
Step 854000
Ar 9.117311e-01 0.000000e+00 0.000000e+00
1
Step 855000
Ar 8.896271e-01 0.000000e+00 0.000000e+00
1
Step 856000
Ar 9.197045e-01 0.000000e+00 0.000000e+00
1
Step 857000
Ar 1.050660e+00 0.000000e+00 0.000000e+00
1
Step 858000
Ar 8.417302e-01 0.000000e+00 0.000000e+00
1
Step 859000
Ar 9.689378e-01 0.000000e+00 0.000000e+00
1
Step 860000
Ar 1.098402e+00 0.000000e+00 0.000000e+00
1
Step 861000
Ar 9.943339e-01 0.000000e+00 0.000000e+00
1
Step 862000
Ar 9.824070e-01 0.000000e+00 0.000000e+00
1
Step 863000
Ar 9.629526e-01 0.000000e+00 0.000000e+00
1
Step 864000
Ar 8.721605e-01 0.000000e+00 0.000000e+00
1
Step 865000
Ar 9.456234e-01 0.000000e+00 0.000000e+00
1
Step 866000
Ar 1.109220e+00 0.000000e+00 0.000000e+00
1
Step 867000
Ar 1.070382e+00 0.000000e+00 0.000000e+00
1
Step 868000
Ar 1.095441e+00 0.000000e+00 0.000000e+00
1
Step 869000
Ar 1.068901e+00 0.000000e+00 0.000000e+00
1
Step 870000
Ar 8.438341e-01 0.000000e+00 0.000000e+00
1
Step 871000
Ar 9.920239e-01 0.000000e+00 0.000000e+00
1
Step 872000
Ar 1.056698e+00 0.000000e+00 0.000000e+00
1
Step 873000
Ar 9.485270e-01 0.000000e+00 0.000000e+00
1
Step 874000
Ar 8.222859e-01 0.000000e+00 0.000000e+00
1
Step 875000
Ar 1.041350e+00 0.000000e+00 0.000000e+00
1
Step 876000
Ar 6.954426e-01 0.000000e+00 0.000000e+00
1
Step 877000
Ar 7.822380e-01 0.000000e+00 0.000000e+00
1
Step 878000
Ar 1.038703e+00 0.000000e+00 0.000000e+00
1
Step 879000
Ar 9.861891e-01 0.000000e+00 0.000000e+00
1
Step 880000
Ar 1.067904e+00 0.000000e+00 0.000000e+00
1
Step 881000
Ar 9.116488e-01 0.000000e+00 0.000000e+00
1
Step 882000
Ar 1.061659e+00 0.000000e+00 0.000000e+00
1
Step 883000
Ar 9.498380e-01 0.000000e+00 0.000000e+00
1
Step 884000
Ar 1.015710e+00 0.000000e+00 0.000000e+00
1
Step 885000
Ar 1.023413e+00 0.000000e+00 0.000000e+00
1
Step 886000
Ar 1.022489e+00 0.000000e+00 0.000000e+00
1
Step 887000
Ar 1.199604e+00 0.000000e+00 0.000000e+00
1
Step 888000
Ar 8.382012e-01 0.000000e+00 0.000000e+00
1
Step 889000
Ar 8.623519e-01 0.000000e+00 0.000000e+00
1
Step 890000
Ar 1.008853e+00 0.000000e+00 0.000000e+00
1
Step 891000
Ar 8.868308e-01 0.000000e+00 0.000000e+00
1
Step 892000
Ar 8.639031e-01 0.000000e+00 0.000000e+00
1
Step 893000
Ar 1.108331e+00 0.000000e+00 0.000000e+00
1
Step 894000
Ar 8.930911e-01 0.000000e+00 0.000000e+00
1
Step 895000
Ar 1.171654e+00 0.000000e+00 0.000000e+00
1
Step 896000
Ar 8.718318e-01 0.000000e+00 0.000000e+00
1
Step 897000
Ar 9.308971e-01 0.000000e+00 0.000000e+00
1
Step 898000
Ar 1.236240e+00 0.000000e+00 0.000000e+00
1
Step 899000
Ar 9.841052e-01 0.000000e+00 0.000000e+00
1
Step 900000
Ar 1.114560e+00 0.000000e+00 0.000000e+00
1
Step 901000
Ar 9.719476e-01 0.000000e+00 0.000000e+00
1
Step 902000
Ar 8.189500e-01 0.000000e+00 0.000000e+00
1
Step 903000
Ar 9.920260e-01 0.000000e+00 0.000000e+00
1
Step 904000
Ar 9.382602e-01 0.000000e+00 0.000000e+00
1
Step 905000
Ar 9.347890e-01 0.000000e+00 0.000000e+00
1
Step 906000
Ar 9.667710e-01 0.000000e+00 0.000000e+00
1
Step 907000
Ar 1.123023e+00 0.000000e+00 0.000000e+00
1
Step 908000
Ar 9.708651e-01 0.000000e+00 0.000000e+00
1
Step 909000
Ar 7.569486e-01 0.000000e+00 0.000000e+00
1
Step 910000
Ar 1.095268e+00 0.000000e+00 0.000000e+00
1
Step 911000
Ar 1.211545e+00 0.000000e+00 0.000000e+00
1
Step 912000
Ar 9.939469e-01 0.000000e+00 0.000000e+00
1
Step 913000
Ar 7.537284e-01 0.000000e+00 0.000000e+00
1
Step 914000
Ar 1.036655e+00 0.000000e+00 0.000000e+00
1
Step 915000
Ar 9.689526e-01 0.000000e+00 0.000000e+00
1
Step 916000
Ar 8.839354e-01 0.000000e+00 0.000000e+00
1
Step 917000
Ar 9.844088e-01 0.000000e+00 0.000000e+00
1
Step 918000
Ar 8.583348e-01 0.000000e+00 0.000000e+00
1
Step 919000
Ar 1.085938e+00 0.000000e+00 0.000000e+00
1
Step 920000
Ar 9.244947e-01 0.000000e+00 0.000000e+00
1
Step 921000
Ar 6.839327e-01 0.000000e+00 0.000000e+00
1
Step 922000
Ar 8.047467e-01 0.000000e+00 0.000000e+00
1
Step 923000
Ar 7.817764e-01 0.000000e+00 0.000000e+00
1
Step 924000
Ar 8.270639e-01 0.000000e+00 0.000000e+00
1
Step 925000
Ar 9.019107e-01 0.000000e+00 0.000000e+00
1
Step 926000
Ar 9.017830e-01 0.000000e+00 0.000000e+00
1
Step 927000
Ar 7.154109e-01 0.000000e+00 0.000000e+00
1
Step 928000
Ar 9.109504e-01 0.000000e+00 0.000000e+00
1
Step 929000
Ar 8.568089e-01 0.000000e+00 0.000000e+00
1
Step 930000
Ar 8.330768e-01 0.000000e+00 0.000000e+00
1
Step 931000
Ar 7.429184e-01 0.000000e+00 0.000000e+00
1
Step 932000
Ar 8.396861e-01 0.000000e+00 0.000000e+00
1
Step 933000
Ar 8.850620e-01 0.000000e+00 0.000000e+00
1
Step 934000
Ar 8.308727e-01 0.000000e+00 0.000000e+00
1
Step 935000
Ar 8.820873e-01 0.000000e+00 0.000000e+00
1
Step 936000
Ar 9.031763e-01 0.000000e+00 0.000000e+00
1
Step 937000
Ar 9.002386e-01 0.000000e+00 0.000000e+00
1
Step 938000
Ar 8.157607e-01 0.000000e+00 0.000000e+00
1
Step 939000
Ar 8.630398e-01 0.000000e+00 0.000000e+00
1
Step 940000
Ar 8.817362e-01 0.000000e+00 0.000000e+00
1
Step 941000
Ar 8.504544e-01 0.000000e+00 0.000000e+00
1
Step 942000
Ar 8.243369e-01 0.000000e+00 0.000000e+00
1
Step 943000
Ar 8.814417e-01 0.000000e+00 0.000000e+00
1
Step 944000
Ar 8.064411e-01 0.000000e+00 0.000000e+00
1
Step 945000
Ar 8.258565e-01 0.000000e+00 0.000000e+00
1
Step 946000
Ar 7.425418e-01 0.000000e+00 0.000000e+00
1
Step 947000
Ar 6.581997e-01 0.000000e+00 0.000000e+00
1
Step 948000
Ar 8.559524e-01 0.000000e+00 0.000000e+00
1
Step 949000
Ar 8.799002e-01 0.000000e+00 0.000000e+00
1
Step 950000
Ar 7.717034e-01 0.000000e+00 0.000000e+00
1
Step 951000
Ar 6.134863e-01 0.000000e+00 0.000000e+00
1
Step 952000
Ar 8.475816e-01 0.000000e+00 0.000000e+00
1
Step 953000
Ar 7.895013e-01 0.000000e+00 0.000000e+00
1
Step 954000
Ar 8.633555e-01 0.000000e+00 0.000000e+00
1
Step 955000
Ar 7.111467e-01 0.000000e+00 0.000000e+00
1
Step 956000
Ar 9.028102e-01 0.000000e+00 0.000000e+00
1
Step 957000
Ar 9.082702e-01 0.000000e+00 0.000000e+00
1
Step 958000
Ar 8.867032e-01 0.000000e+00 0.000000e+00
1
Step 959000
Ar 9.004679e-01 0.000000e+00 0.000000e+00
1
Step 960000
Ar 8.732658e-01 0.000000e+00 0.000000e+00
1
Step 961000
Ar 8.822262e-01 0.000000e+00 0.000000e+00
1
Step 962000
Ar 8.721952e-01 0.000000e+00 0.000000e+00
1
Step 963000
Ar 8.893024e-01 0.000000e+00 0.000000e+00
1
Step 964000
Ar 8.907746e-01 0.000000e+00 0.000000e+00
1
Step 965000
Ar 8.824993e-01 0.000000e+00 0.000000e+00
1
Step 966000
Ar 8.762196e-01 0.000000e+00 0.000000e+00
1
Step 967000
Ar 8.649036e-01 0.000000e+00 0.000000e+00
1
Step 968000
Ar 7.517316e-01 0.000000e+00 0.000000e+00
1
Step 969000
Ar 8.617205e-01 0.000000e+00 0.000000e+00
1
Step 970000
Ar 7.472617e-01 0.000000e+00 0.000000e+00
1
Step 971000
Ar 8.054268e-01 0.000000e+00 0.000000e+00
1
Step 972000
Ar 8.882123e-01 0.000000e+00 0.000000e+00
1
Step 973000
Ar 8.612906e-01 0.000000e+00 0.000000e+00
1
Step 974000
Ar 8.983481e-01 0.000000e+00 0.000000e+00
1
Step 975000
Ar 8.827892e-01 0.000000e+00 0.000000e+00
1
Step 976000
Ar 8.663117e-01 0.000000e+00 0.000000e+00
1
Step 977000
Ar 8.870155e-01 0.000000e+00 0.000000e+00
1
Step 978000
Ar 8.188187e-01 0.000000e+00 0.000000e+00
1
Step 979000
Ar 8.617521e-01 0.000000e+00 0.000000e+00
1
Step 980000
Ar 8.098843e-01 0.000000e+00 0.000000e+00
1
Step 981000
Ar 7.825711e-01 0.000000e+00 0.000000e+00
1
Step 982000
Ar 7.119764e-01 0.000000e+00 0.000000e+00
1
Step 983000
Ar 8.725292e-01 0.000000e+00 0.000000e+00
1
Step 984000
Ar 9.078812e-01 0.000000e+00 0.000000e+00
1
Step 985000
Ar 8.463653e-01 0.000000e+00 0.000000e+00
1
Step 986000
Ar 9.055406e-01 0.000000e+00 0.000000e+00
1
Step 987000
Ar 7.095943e-01 0.000000e+00 0.000000e+00
1
Step 988000
Ar 8.790716e-01 0.000000e+00 0.000000e+00
1
Step 989000
Ar 9.141969e-01 0.000000e+00 0.000000e+00
1
Step 990000
Ar 8.578044e-01 0.000000e+00 0.000000e+00
1
Step 991000
Ar 7.570424e-01 0.000000e+00 0.000000e+00
1
Step 992000
Ar 7.659848e-01 0.000000e+00 0.000000e+00
1
Step 993000
Ar 7.970357e-01 0.000000e+00 0.000000e+00
1
Step 994000
Ar 8.748348e-01 0.000000e+00 0.000000e+00
1
Step 995000
Ar 7.991950e-01 0.000000e+00 0.000000e+00
1
Step 996000
Ar 8.168866e-01 0.000000e+00 0.000000e+00
1
Step 997000
Ar 7.960562e-01 0.000000e+00 0.000000e+00
1
Step 998000
Ar 7.245425e-01 0.000000e+00 0.000000e+00
1
Step 999000
Ar 9.006142e-01 0.000000e+00 0.000000e+00
