1
Step 0
Ar 5.000000e+00 0.000000e+00 0.000000e+00
1
Step 0
Ar 4.999856e+00 2.112232e-15 3.730765e-14
1
Step 150
Ar 2.062993e+00 2.536342e-13 4.479857e-12
1
Step 300
Ar -3.269018e+00 2.106853e-13 3.721264e-12
1
Step 450
Ar -4.805679e+00 -7.687055e-14 -1.357739e-12
1
Step 600
Ar -7.629167e-01 -2.751792e-13 -4.860399e-12
1
Step 750
Ar 4.165596e+00 -1.540031e-13 -2.720105e-12
1
Step 900
Ar 4.257826e+00 1.459716e-13 2.578247e-12
1
Step 1050
Ar -5.933067e-01 2.764723e-13 4.883239e-12
1
Step 1200
Ar -4.755607e+00 8.598698e-14 1.518760e-12
1
Step 1350
Ar -3.396618e+00 -2.043298e-13 -3.609009e-12
1
Step 1500
Ar 1.905866e+00 -2.574184e-13 -4.546696e-12
1
Step 1650
Ar 4.995627e+00 -1.164265e-14 -2.056403e-13
1
Step 1800
Ar 2.285434e+00 2.476503e-13 4.374165e-12
1
Step 1950
Ar -3.078162e+00 2.194197e-13 3.875537e-12
1
Step 2100
Ar -4.867993e+00 -6.355851e-14 -1.122613e-12
1
Step 2250
Ar -1.006054e+00 -2.727449e-13 -4.817403e-12
1
Step 2400
Ar 4.023920e+00 -1.652727e-13 -2.919158e-12
1
Step 2550
Ar 4.382098e+00 1.340821e-13 2.368247e-12
1
Step 2700
Ar -3.473671e-01 2.777668e-13 4.906103e-12
1
Step 2850
Ar -4.673537e+00 9.896252e-14 1.747942e-12
1
Step 3000
Ar -3.573701e+00 -1.947378e-13 -3.439590e-12
1
Step 3150
Ar 1.675224e+00 -2.623463e-13 -4.633737e-12
1
Step 3300
Ar 4.979203e+00 -2.536912e-14 -4.480863e-13
1
Step 3450
Ar 2.502297e+00 2.410618e-13 4.257795e-12
1
Step 3600
Ar -2.879792e+00 2.276185e-13 4.020350e-12
1
Step 3750
Ar -4.918424e+00 -5.009133e-14 -8.847466e-13
1
Step 3900
Ar -1.246736e+00 -2.696448e-13 -4.762647e-12
1
Step 4050
Ar 3.872421e+00 -1.761390e-13 -3.111085e-12
1
Step 4200
Ar 4.495673e+00 1.218653e-13 2.152466e-12
1
Step 4350
Ar -1.005795e-01 2.783832e-13 4.916990e-12
1
Step 4500
Ar -4.580058e+00 1.116965e-13 1.972858e-12
1
Step 4650
Ar -3.742061e+00 -1.846705e-13 -3.261775e-12
1
Step 4800
Ar 1.440492e+00 -2.666339e-13 -4.709467e-12
1
Step 4950
Ar 4.950625e+00 -3.903365e-14 -6.894385e-13
1
Step 5100
Ar 2.713051e+00 2.338849e-13 4.131032e-12
1
Step 5250
Ar -2.674392e+00 2.352617e-13 4.155349e-12
1
Step 5400
Ar -4.956849e+00 -3.650186e-14 -6.447203e-13
1
Step 5550
Ar -1.484374e+00 -2.658865e-13 -4.696265e-12
1
Step 5700
Ar 3.711469e+00 -1.865752e-13 -3.295417e-12
1
Step 5850
Ar 4.598273e+00 1.093510e-13 1.931431e-12
1
Step 6000
Ar 1.464536e-01 2.783201e-13 4.915875e-12
1
Step 6150
Ar -4.475400e+00 1.241578e-13 2.192958e-12
1
Step 6300
Ar -3.901286e+00 -1.741525e-13 -3.075997e-12
1
Step 6450
Ar 1.202245e+00 -2.702706e-13 -4.773701e-12
1
Step 6600
Ar 4.909962e+00 -5.260291e-14 -9.291078e-13
1
Step 6750
Ar 2.917183e+00 2.261371e-13 3.994185e-12
1
Step 6900
Ar -2.462464e+00 2.423305e-13 4.280204e-12
1
Step 7050
Ar -4.983175e+00 -2.282330e-14 -4.031203e-13
1
Step 7200
Ar -1.718389e+00 -2.614791e-13 -4.618420e-12
1
Step 7350
Ar 3.541457e+00 -1.965561e-13 -3.471705e-12
1
Step 7500
Ar 4.689649e+00 9.656981e-14 1.705681e-12
1
Step 7650
Ar 3.931292e-01 2.775775e-13 4.902760e-12
1
Step 7800
Ar -4.359816e+00 1.363160e-13 2.407705e-12
1
Step 7950
Ar -4.050988e+00 -1.632093e-13 -2.882711e-12
1
Step 8100
Ar 9.610626e-01 -2.732476e-13 -4.826281e-12
1
Step 8250
Ar 4.857313e+00 -6.604375e-14 -1.166509e-12
1
Step 8400
Ar 3.114193e+00 2.178373e-13 3.847588e-12
1
Step 8550
Ar -2.244525e+00 2.488079e-13 4.394611e-12
1
Step 8700
Ar -4.997335e+00 -9.089016e-15 -1.605363e-13
1
Step 8850
Ar -1.948209e+00 -2.564335e-13 -4.529300e-12
1
Step 9000
Ar 3.362801e+00 -2.060571e-13 -3.639518e-12
1
Step 9150
Ar 4.769577e+00 8.355288e-14 1.475767e-12
1
Step 9300
Ar 6.388451e-01 2.761574e-13 4.877677e-12
1
Step 9450
Ar -4.233590e+00 1.481415e-13 2.616574e-12
1
Step 9600
Ar -4.190801e+00 -1.518676e-13 -2.682388e-12
1
Step 9750
Ar 7.175343e-01 -2.755575e-13 -4.867081e-12
1
Step 9900
Ar 4.792808e+00 -7.932338e-14 -1.401063e-12
