1
Step 0
Ar 5.000000e+00 0.000000e+00 0.000000e+00
1
Step 0
Ar 4.999856e+00 2.112232e-15 3.730765e-14
1
Step 100
Ar 3.602790e+00 1.930685e-13 3.410105e-12
1
Step 200
Ar 2.299349e-01 2.781450e-13 4.912782e-12
1
Step 300
Ar -3.269018e+00 2.106853e-13 3.721264e-12
1
Step 400
Ar -4.975224e+00 2.768466e-14 4.889849e-13
1
Step 500
Ar -3.952991e+00 -1.704984e-13 -3.011456e-12
1
Step 600
Ar -7.629167e-01 -2.751792e-13 -4.860399e-12
1
Step 700
Ar 2.845545e+00 -2.289503e-13 -4.043873e-12
1
Step 800
Ar 4.893495e+00 -5.716383e-14 -1.009666e-12
1
Step 900
Ar 4.257826e+00 1.459716e-13 2.578247e-12
1
Step 1000
Ar 1.287143e+00 2.690554e-13 4.752236e-12
1
Step 1100
Ar -2.389416e+00 2.445878e-13 4.320073e-12
1
Step 1200
Ar -4.755607e+00 8.598698e-14 1.518760e-12
1
Step 1300
Ar -4.513797e+00 -1.197696e-13 -2.115450e-12
1
Step 1400
Ar -1.796598e+00 -2.598438e-13 -4.589536e-12
1
Step 1500
Ar 1.905866e+00 -2.574184e-13 -4.546696e-12
1
Step 1600
Ar 4.563142e+00 -1.138233e-13 -2.010424e-12
1
Step 1700
Ar 4.717968e+00 9.219305e-14 1.628375e-12
1
Step 1800
Ar 2.285434e+00 2.476503e-13 4.374165e-12
1
Step 1900
Ar -1.400443e+00 2.672948e-13 4.721139e-12
1
Step 2000
Ar -4.318310e+00 1.403534e-13 2.479016e-12
1
Step 2100
Ar -4.867993e+00 -6.355851e-14 -1.122613e-12
1
Step 2200
Ar -2.748043e+00 -2.326146e-13 -4.108595e-12
1
Step 2300
Ar 8.789486e-01 -2.741036e-13 -4.841401e-12
1
Step 2400
Ar 4.023920e+00 -1.652727e-13 -2.919158e-12
1
Step 2500
Ar 4.962152e+00 3.419456e-14 6.039673e-13
1
Step 2600
Ar 3.179114e+00 2.149094e-13 3.795874e-12
1
Step 2700
Ar -3.473671e-01 2.777668e-13 4.906103e-12
1
Step 2800
Ar -3.683350e+00 1.882954e-13 3.325799e-12
1
Step 2900
Ar -4.999365e+00 -4.438190e-15 -7.839029e-14
1
Step 3000
Ar -3.573701e+00 -1.947378e-13 -3.439590e-12
1
Step 3100
Ar -1.882008e-01 -2.782422e-13 -4.914500e-12
1
Step 3200
Ar 3.300510e+00 -2.091571e-13 -3.694273e-12
1
Step 3300
Ar 4.979203e+00 -2.536912e-14 -4.480863e-13
1
Step 3400
Ar 3.927275e+00 1.723314e-13 3.043833e-12
1
Step 3500
Ar 7.216089e-01 2.755245e-13 4.866498e-12
1
Step 3600
Ar -2.879792e+00 2.276185e-13 4.020350e-12
1
Step 3700
Ar -4.901899e+00 5.488528e-14 9.694206e-13
1
Step 3800
Ar -4.235779e+00 -1.479473e-13 -2.613144e-12
1
Step 3900
Ar -1.246736e+00 -2.696448e-13 -4.762647e-12
1
Step 4000
Ar 2.426025e+00 -2.434677e-13 -4.300289e-12
1
Step 4100
Ar 4.768340e+00 -8.377157e-14 -1.479630e-12
1
Step 4200
Ar 4.495673e+00 1.218653e-13 2.152466e-12
1
Step 4300
Ar 1.757554e+00 2.606706e-13 4.604138e-12
1
Step 4400
Ar -1.944416e+00 2.565227e-13 4.530877e-12
1
Step 4500
Ar -4.580058e+00 1.116965e-13 1.972858e-12
1
Step 4600
Ar -4.703972e+00 -9.438473e-14 -1.667086e-12
1
Step 4700
Ar -2.248203e+00 -2.487049e-13 -4.392792e-12
1
Step 4800
Ar 1.440492e+00 -2.666339e-13 -4.709467e-12
1
Step 4900
Ar 4.339215e+00 -1.383395e-13 -2.443445e-12
1
Step 5000
Ar 4.858288e+00 6.582098e-14 1.162574e-12
1
Step 5100
Ar 2.713051e+00 2.338849e-13 4.131032e-12
1
Step 5200
Ar -9.200377e-01 2.736851e-13 4.834010e-12
1
Step 5300
Ar -4.048573e+00 1.633950e-13 2.885991e-12
1
Step 5400
Ar -4.956849e+00 -3.650186e-14 -6.447203e-13
1
Step 5500
Ar -3.146763e+00 -2.163809e-13 -3.821864e-12
1
Step 5600
Ar 3.890243e-01 -2.775955e-13 -4.903077e-12
1
Step 5700
Ar 3.711469e+00 -1.865752e-13 -3.295417e-12
1
Step 5800
Ar 4.998525e+00 6.763839e-15 1.194675e-13
1
Step 5900
Ar 3.544363e+00 1.963936e-13 3.468835e-12
1
Step 6000
Ar 1.464536e-01 2.783201e-13 4.915875e-12
1
Step 6100
Ar -3.331771e+00 2.076143e-13 3.667023e-12
1
Step 6200
Ar -4.982835e+00 2.305181e-14 4.071565e-13
1
Step 6300
Ar -3.901286e+00 -1.741525e-13 -3.075997e-12
1
Step 6400
Ar -6.802507e-01 -2.758506e-13 -4.872258e-12
1
Step 6500
Ar 2.913838e+00 -2.262708e-13 -3.996546e-12
1
Step 6600
Ar 4.909962e+00 -5.260291e-14 -9.291078e-13
1
Step 6700
Ar 4.213437e+00 1.499127e-13 2.647858e-12
1
Step 6800
Ar 1.206241e+00 2.702154e-13 4.772725e-12
1
Step 6900
Ar -2.462464e+00 2.423305e-13 4.280204e-12
1
Step 7000
Ar -4.780741e+00 8.155032e-14 1.440396e-12
1
Step 7100
Ar -4.477234e+00 -1.239525e-13 -2.189332e-12
1
Step 7200
Ar -1.718389e+00 -2.614791e-13 -4.618420e-12
1
Step 7300
Ar 1.982830e+00 -2.556092e-13 -4.514741e-12
1
Step 7400
Ar 4.596655e+00 -1.095618e-13 -1.935155e-12
1
Step 7500
Ar 4.689649e+00 9.656981e-14 1.705681e-12
1
Step 7600
Ar 2.210815e+00 2.497421e-13 4.411112e-12
1
Step 7700
Ar -1.480441e+00 2.659545e-13 4.697466e-12
1
Step 7800
Ar -4.359816e+00 1.363160e-13 2.407705e-12
1
Step 7900
Ar -4.848245e+00 -6.807886e-14 -1.202454e-12
1
Step 8000
Ar -2.677870e+00 -2.351389e-13 -4.153181e-12
1
Step 8100
Ar 9.610626e-01 -2.732476e-13 -4.826281e-12
1
Step 8200
Ar 4.072944e+00 -1.615058e-13 -2.852623e-12
1
Step 8300
Ar 4.951201e+00 3.880661e-14 6.854284e-13
1
Step 8400
Ar 3.114193e+00 2.178373e-13 3.847588e-12
1
Step 8500
Ar -4.306544e-01 2.774048e-13 4.899709e-12
1
Step 8600
Ar -3.739329e+00 1.848421e-13 3.264805e-12
1
Step 8700
Ar -4.997335e+00 -9.089016e-15 -1.605363e-13
1
Step 8800
Ar -3.514777e+00 -1.980357e-13 -3.497838e-12
1
Step 8900
Ar -1.046961e-01 -2.783785e-13 -4.916907e-12
1
Step 9000
Ar 3.362801e+00 -2.060571e-13 -3.639518e-12
1
Step 9100
Ar 4.986120e+00 -2.073289e-14 -3.661982e-13
1
Step 9200
Ar 3.875024e+00 1.759613e-13 3.107947e-12
1
Step 9300
Ar 6.388451e-01 2.761574e-13 4.877677e-12
1
Step 9400
Ar -2.947680e+00 2.249073e-13 3.972464e-12
1
Step 9500
Ar -4.917682e+00 5.031686e-14 8.887301e-13
1
Step 9600
Ar -4.190801e+00 -1.518676e-13 -2.682388e-12
1
Step 9700
Ar -1.165663e+00 -2.707671e-13 -4.782470e-12
1
Step 9800
Ar 2.498731e+00 -2.411765e-13 -4.259821e-12
1
Step 9900
Ar 4.792808e+00 -7.932338e-14 -1.401063e-12
