1
Step 0
Ar 5.000000e+00 0.000000e+00 0.000000e+00
1
Step 0
Ar 4.999856e+00 2.112232e-15 3.730765e-14
1
Step 300
Ar -3.269018e+00 2.106853e-13 3.721264e-12
1
Step 600
Ar -7.629167e-01 -2.751792e-13 -4.860399e-12
1
Step 900
Ar 4.257826e+00 1.459716e-13 2.578247e-12
1
Step 1200
Ar -4.755607e+00 8.598698e-14 1.518760e-12
1
Step 1500
Ar 1.905866e+00 -2.574184e-13 -4.546696e-12
1
Step 1800
Ar 2.285434e+00 2.476503e-13 4.374165e-12
1
Step 2100
Ar -4.867993e+00 -6.355851e-14 -1.122613e-12
1
Step 2400
Ar 4.023920e+00 -1.652727e-13 -2.919158e-12
1
Step 2700
Ar -3.473671e-01 2.777668e-13 4.906103e-12
1
Step 3000
Ar -3.573701e+00 -1.947378e-13 -3.439590e-12
1
Step 3300
Ar 4.979203e+00 -2.536912e-14 -4.480863e-13
1
Step 3600
Ar -2.879792e+00 2.276185e-13 4.020350e-12
1
Step 3900
Ar -1.246736e+00 -2.696448e-13 -4.762647e-12
1
Step 4200
Ar 4.495673e+00 1.218653e-13 2.152466e-12
1
Step 4500
Ar -4.580058e+00 1.116965e-13 1.972858e-12
1
Step 4800
Ar 1.440492e+00 -2.666339e-13 -4.709467e-12
1
Step 5100
Ar 2.713051e+00 2.338849e-13 4.131032e-12
1
Step 5400
Ar -4.956849e+00 -3.650186e-14 -6.447203e-13
1
Step 5700
Ar 3.711469e+00 -1.865752e-13 -3.295417e-12
1
Step 6000
Ar 1.464536e-01 2.783201e-13 4.915875e-12
1
Step 6300
Ar -3.901286e+00 -1.741525e-13 -3.075997e-12
1
Step 6600
Ar 4.909962e+00 -5.260291e-14 -9.291078e-13
1
Step 6900
Ar -2.462464e+00 2.423305e-13 4.280204e-12
1
Step 7200
Ar -1.718389e+00 -2.614791e-13 -4.618420e-12
1
Step 7500
Ar 4.689649e+00 9.656981e-14 1.705681e-12
1
Step 7800
Ar -4.359816e+00 1.363160e-13 2.407705e-12
1
Step 8100
Ar 9.610626e-01 -2.732476e-13 -4.826281e-12
1
Step 8400
Ar 3.114193e+00 2.178373e-13 3.847588e-12
1
Step 8700
Ar -4.997335e+00 -9.089016e-15 -1.605363e-13
1
Step 9000
Ar 3.362801e+00 -2.060571e-13 -3.639518e-12
1
Step 9300
Ar 6.388451e-01 2.761574e-13 4.877677e-12
1
Step 9600
Ar -4.190801e+00 -1.518676e-13 -2.682388e-12
1
Step 9900
Ar 4.792808e+00 -7.932338e-14 -1.401063e-12
