1
Step 0
Ar 5.000000e+00 0.000000e+00 0.000000e+00
1
Step 0
Ar 4.999856e+00 2.112232e-15 3.730765e-14
1
Step 500
Ar -3.952991e+00 -1.704984e-13 -3.011456e-12
1
Step 1000
Ar 1.287143e+00 2.690554e-13 4.752236e-12
1
Step 1500
Ar 1.905866e+00 -2.574184e-13 -4.546696e-12
1
Step 2000
Ar -4.318310e+00 1.403534e-13 2.479016e-12
1
Step 2500
Ar 4.962152e+00 3.419456e-14 6.039673e-13
1
Step 3000
Ar -3.573701e+00 -1.947378e-13 -3.439590e-12
1
Step 3500
Ar 7.216089e-01 2.755245e-13 4.866498e-12
1
Step 4000
Ar 2.426025e+00 -2.434677e-13 -4.300289e-12
1
Step 4500
Ar -4.580058e+00 1.116965e-13 1.972858e-12
1
Step 5000
Ar 4.858288e+00 6.582098e-14 1.162574e-12
1
Step 5500
Ar -3.146763e+00 -2.163809e-13 -3.821864e-12
1
Step 6000
Ar 1.464536e-01 2.783201e-13 4.915875e-12
1
Step 6500
Ar 2.913838e+00 -2.262708e-13 -3.996546e-12
1
Step 7000
Ar -4.780741e+00 8.155032e-14 1.440396e-12
1
Step 7500
Ar 4.689649e+00 9.656981e-14 1.705681e-12
1
Step 8000
Ar -2.677870e+00 -2.351389e-13 -4.153181e-12
1
Step 8500
Ar -4.306544e-01 2.774048e-13 4.899709e-12
1
Step 9000
Ar 3.362801e+00 -2.060571e-13 -3.639518e-12
1
Step 9500
Ar -4.917682e+00 5.031686e-14 8.887301e-13
