1
Step 0
Ar 5.000000e+00 0.000000e+00 0.000000e+00
1
Step 0
Ar 4.999856e+00 2.112232e-15 3.730765e-14
1
Step 50
Ar 4.630439e+00 1.050575e-13 1.855596e-12
1
Step 100
Ar 3.602790e+00 1.930685e-13 3.410105e-12
1
Step 150
Ar 2.062993e+00 2.536342e-13 4.479857e-12
1
Step 200
Ar 2.299349e-01 2.781450e-13 4.912782e-12
1
Step 250
Ar -1.635809e+00 2.631165e-13 4.647341e-12
1
Step 300
Ar -3.269018e+00 2.106853e-13 3.721264e-12
1
Step 350
Ar -4.437525e+00 1.283044e-13 2.266198e-12
1
Step 400
Ar -4.975224e+00 2.768466e-14 4.889849e-13
1
Step 450
Ar -4.805679e+00 -7.687055e-14 -1.357739e-12
1
Step 500
Ar -3.952991e+00 -1.704984e-13 -3.011456e-12
1
Step 550
Ar -2.538373e+00 -2.398893e-13 -4.237085e-12
1
Step 600
Ar -7.629167e-01 -2.751792e-13 -4.860399e-12
1
Step 650
Ar 1.120990e+00 -2.713515e-13 -4.792791e-12
1
Step 700
Ar 2.845545e+00 -2.289503e-13 -4.043873e-12
1
Step 750
Ar 4.165596e+00 -1.540031e-13 -2.720105e-12
1
Step 800
Ar 4.893495e+00 -5.716383e-14 -1.009666e-12
1
Step 850
Ar 4.925767e+00 4.780143e-14 8.443009e-13
1
Step 900
Ar 4.257826e+00 1.459716e-13 2.578247e-12
1
Step 950
Ar 2.984621e+00 2.233914e-13 3.945688e-12
1
Step 1000
Ar 1.287143e+00 2.690554e-13 4.752236e-12
1
Step 1050
Ar -5.933067e-01 2.764723e-13 4.883239e-12
1
Step 1100
Ar -2.389416e+00 2.445878e-13 4.320073e-12
1
Step 1150
Ar -3.845862e+00 1.779344e-13 3.142796e-12
1
Step 1200
Ar -4.755607e+00 8.598698e-14 1.518760e-12
1
Step 1250
Ar -4.989326e+00 -1.818373e-14 -3.211732e-13
1
Step 1300
Ar -4.513797e+00 -1.197696e-13 -2.115450e-12
1
Step 1350
Ar -3.396618e+00 -2.043298e-13 -3.609009e-12
1
Step 1400
Ar -1.796598e+00 -2.598438e-13 -4.589536e-12
1
Step 1450
Ar 5.881420e-02 -2.784203e-13 -4.917645e-12
1
Step 1500
Ar 1.905866e+00 -2.574184e-13 -4.546696e-12
1
Step 1550
Ar 3.481992e+00 -1.998236e-13 -3.529419e-12
1
Step 1600
Ar 4.563142e+00 -1.138233e-13 -2.010424e-12
1
Step 1650
Ar 4.995627e+00 -1.164265e-14 -2.056403e-13
1
Step 1700
Ar 4.717968e+00 9.219305e-14 1.628375e-12
1
Step 1750
Ar 3.769634e+00 1.829232e-13 3.230912e-12
1
Step 1800
Ar 2.285434e+00 2.476503e-13 4.374165e-12
1
Step 1850
Ar 4.763533e-01 2.771730e-13 4.895616e-12
1
Step 1900
Ar -1.400443e+00 2.672948e-13 4.721139e-12
1
Step 1950
Ar -3.078162e+00 2.194197e-13 3.875537e-12
1
Step 2000
Ar -4.318310e+00 1.403534e-13 2.479016e-12
1
Step 2050
Ar -4.944597e+00 4.133542e-14 7.300939e-13
1
Step 2100
Ar -4.867993e+00 -6.355851e-14 -1.122613e-12
1
Step 2150
Ar -4.099389e+00 -1.594174e-13 -2.815737e-12
1
Step 2200
Ar -2.748043e+00 -2.326146e-13 -4.108595e-12
1
Step 2250
Ar -1.006054e+00 -2.727449e-13 -4.817403e-12
1
Step 2300
Ar 8.789486e-01 -2.741036e-13 -4.841401e-12
1
Step 2350
Ar 2.639006e+00 -2.364976e-13 -4.177179e-12
1
Step 2400
Ar 4.023920e+00 -1.652727e-13 -2.919158e-12
1
Step 2450
Ar 4.836821e+00 -7.055381e-14 -1.246169e-12
1
Step 2500
Ar 4.962152e+00 3.419456e-14 6.039673e-13
1
Step 2550
Ar 4.382098e+00 1.340821e-13 2.368247e-12
1
Step 2600
Ar 3.179114e+00 2.149094e-13 3.795874e-12
1
Step 2650
Ar 1.524209e+00 2.651866e-13 4.683904e-12
1
Step 2700
Ar -3.473671e-01 2.777668e-13 4.906103e-12
1
Step 2750
Ar -2.169564e+00 2.508615e-13 4.430883e-12
1
Step 2800
Ar -3.683350e+00 1.882954e-13 3.325799e-12
1
Step 2850
Ar -4.673537e+00 9.896252e-14 1.747942e-12
1
Step 2900
Ar -4.999365e+00 -4.438190e-15 -7.839029e-14
1
Step 2950
Ar -4.614517e+00 -1.072080e-13 -1.893579e-12
1
Step 3000
Ar -3.573701e+00 -1.947378e-13 -3.439590e-12
1
Step 3050
Ar -2.024872e+00 -2.545851e-13 -4.496652e-12
1
Step 3100
Ar -1.882008e-01 -2.782422e-13 -4.914500e-12
1
Step 3150
Ar 1.675224e+00 -2.623463e-13 -4.633737e-12
1
Step 3200
Ar 3.300510e+00 -2.091571e-13 -3.694273e-12
1
Step 3250
Ar 4.456618e+00 -1.262355e-13 -2.229656e-12
1
Step 3300
Ar 4.979203e+00 -2.536912e-14 -4.480863e-13
1
Step 3350
Ar 4.793979e+00 7.910357e-14 1.397180e-12
1
Step 3400
Ar 3.927275e+00 1.723314e-13 3.043833e-12
1
Step 3450
Ar 2.502297e+00 2.410618e-13 4.257795e-12
1
Step 3500
Ar 7.216089e-01 2.755245e-13 4.866498e-12
1
Step 3550
Ar -1.161658e+00 2.708205e-13 4.783413e-12
1
Step 3600
Ar -2.879792e+00 2.276185e-13 4.020350e-12
1
Step 3650
Ar -4.188554e+00 1.520598e-13 2.685782e-12
1
Step 3700
Ar -4.901899e+00 5.488528e-14 9.694206e-13
1
Step 3750
Ar -4.918424e+00 -5.009133e-14 -8.847466e-13
1
Step 3800
Ar -4.235779e+00 -1.479473e-13 -2.613144e-12
1
Step 3850
Ar -2.951005e+00 -2.247721e-13 -3.970075e-12
1
Step 3900
Ar -1.246736e+00 -2.696448e-13 -4.762647e-12
1
Step 3950
Ar 6.347612e-01 -2.761866e-13 -4.878193e-12
1
Step 4000
Ar 2.426025e+00 -2.434677e-13 -4.300289e-12
1
Step 4050
Ar 3.872421e+00 -1.761390e-13 -3.111085e-12
1
Step 4100
Ar 4.768340e+00 -8.377157e-14 -1.479630e-12
1
Step 4150
Ar 4.986425e+00 2.050423e-14 3.621594e-13
1
Step 4200
Ar 4.495673e+00 1.218653e-13 2.152466e-12
1
Step 4250
Ar 3.365847e+00 2.059028e-13 3.636793e-12
1
Step 4300
Ar 1.757554e+00 2.606706e-13 4.604138e-12
1
Step 4350
Ar -1.005795e-01 2.783832e-13 4.916990e-12
1
Step 4400
Ar -1.944416e+00 2.565227e-13 4.530877e-12
1
Step 4450
Ar -3.511847e+00 1.981968e-13 3.500684e-12
1
Step 4500
Ar -4.580058e+00 1.116965e-13 1.972858e-12
1
Step 4550
Ar -4.997199e+00 9.318182e-15 1.645840e-13
1
Step 4600
Ar -4.703972e+00 -9.438473e-14 -1.667086e-12
1
Step 4650
Ar -3.742061e+00 -1.846705e-13 -3.261775e-12
1
Step 4700
Ar -2.248203e+00 -2.487049e-13 -4.392792e-12
1
Step 4750
Ar -4.347564e-01 -2.773850e-13 -4.899359e-12
1
Step 4800
Ar 1.440492e+00 -2.666339e-13 -4.709467e-12
1
Step 4850
Ar 3.110971e+00 -2.179800e-13 -3.850109e-12
1
Step 4900
Ar 4.339215e+00 -1.383395e-13 -2.443445e-12
1
Step 4950
Ar 4.950625e+00 -3.903365e-14 -6.894385e-13
1
Step 5000
Ar 4.858288e+00 6.582098e-14 1.162574e-12
1
Step 5050
Ar 4.075330e+00 1.613190e-13 2.849323e-12
1
Step 5100
Ar 2.713051e+00 2.338849e-13 4.131032e-12
1
Step 5150
Ar 9.651030e-01 2.732034e-13 4.825501e-12
1
Step 5200
Ar -9.200377e-01 2.736851e-13 4.834010e-12
1
Step 5250
Ar -2.674392e+00 2.352617e-13 4.155349e-12
1
Step 5300
Ar -4.048573e+00 1.633950e-13 2.885991e-12
1
Step 5350
Ar -4.847236e+00 6.830117e-14 1.206381e-12
1
Step 5400
Ar -4.956849e+00 -3.650186e-14 -6.447203e-13
1
Step 5450
Ar -4.361831e+00 -1.361160e-13 -2.404173e-12
1
Step 5500
Ar -3.146763e+00 -2.163809e-13 -3.821864e-12
1
Step 5550
Ar -1.484374e+00 -2.658865e-13 -4.696265e-12
1
Step 5600
Ar 3.890243e-01 -2.775955e-13 -4.903077e-12
1
Step 5650
Ar 2.207121e+00 -2.498434e-13 -4.412901e-12
1
Step 5700
Ar 3.711469e+00 -1.865752e-13 -3.295417e-12
1
Step 5750
Ar 4.688220e+00 -9.678484e-14 -1.709479e-12
1
Step 5800
Ar 4.998525e+00 6.763839e-15 1.194675e-13
1
Step 5850
Ar 4.598273e+00 1.093510e-13 1.931431e-12
1
Step 5900
Ar 3.544363e+00 1.963936e-13 3.468835e-12
1
Step 5950
Ar 1.986610e+00 2.555182e-13 4.513134e-12
1
Step 6000
Ar 1.464536e-01 2.783201e-13 4.915875e-12
1
Step 6050
Ar -1.714521e+00 2.615578e-13 4.619810e-12
1
Step 6100
Ar -3.331771e+00 2.076143e-13 3.667023e-12
1
Step 6150
Ar -4.475400e+00 1.241578e-13 2.192958e-12
1
Step 6200
Ar -4.982835e+00 2.305181e-14 4.071565e-13
1
Step 6250
Ar -4.781945e+00 -8.133106e-14 -1.436524e-12
1
Step 6300
Ar -3.901286e+00 -1.741525e-13 -3.075997e-12
1
Step 6350
Ar -2.466047e+00 -2.422175e-13 -4.278208e-12
1
Step 6400
Ar -6.802507e-01 -2.758506e-13 -4.872258e-12
1
Step 6450
Ar 1.202245e+00 -2.702706e-13 -4.773701e-12
1
Step 6500
Ar 2.913838e+00 -2.262708e-13 -3.996546e-12
1
Step 6550
Ar 4.211219e+00 -1.501059e-13 -2.651270e-12
1
Step 6600
Ar 4.909962e+00 -5.260291e-14 -9.291078e-13
1
Step 6650
Ar 4.910738e+00 5.237773e-14 9.251305e-13
1
Step 6700
Ar 4.213437e+00 1.499127e-13 2.647858e-12
1
Step 6750
Ar 2.917183e+00 2.261371e-13 3.994185e-12
1
Step 6800
Ar 1.206241e+00 2.702154e-13 4.772725e-12
1
Step 6850
Ar -6.761713e-01 2.758817e-13 4.872807e-12
1
Step 6900
Ar -2.462464e+00 2.423305e-13 4.280204e-12
1
Step 6950
Ar -3.898709e+00 1.743313e-13 3.079156e-12
1
Step 7000
Ar -4.780741e+00 8.155032e-14 1.440396e-12
1
Step 7050
Ar -4.983175e+00 -2.282330e-14 -4.031203e-13
1
Step 7100
Ar -4.477234e+00 -1.239525e-13 -2.189332e-12
1
Step 7150
Ar -3.334840e+00 -2.074615e-13 -3.664324e-12
1
Step 7200
Ar -1.718389e+00 -2.614791e-13 -4.618420e-12
1
Step 7250
Ar 1.423378e-01 -2.783267e-13 -4.915992e-12
1
Step 7300
Ar 1.982830e+00 -2.556092e-13 -4.514741e-12
1
Step 7350
Ar 3.541457e+00 -1.965561e-13 -3.471705e-12
1
Step 7400
Ar 4.596655e+00 -1.095618e-13 -1.935155e-12
1
Step 7450
Ar 4.998423e+00 -6.993061e-15 -1.235161e-13
1
Step 7500
Ar 4.689649e+00 9.656981e-14 1.705681e-12
1
Step 7550
Ar 3.714227e+00 1.864050e-13 3.292410e-12
1
Step 7600
Ar 2.210815e+00 2.497421e-13 4.411112e-12
1
Step 7650
Ar 3.931292e-01 2.775775e-13 4.902760e-12
1
Step 7700
Ar -1.480441e+00 2.659545e-13 4.697466e-12
1
Step 7750
Ar -3.143563e+00 2.165251e-13 3.824412e-12
1
Step 7800
Ar -4.359816e+00 1.363160e-13 2.407705e-12
1
Step 7850
Ar -4.956308e+00 3.672916e-14 6.487351e-13
1
Step 7900
Ar -4.848245e+00 -6.807886e-14 -1.202454e-12
1
Step 7950
Ar -4.050988e+00 -1.632093e-13 -2.882711e-12
1
Step 8000
Ar -2.677870e+00 -2.351389e-13 -4.153181e-12
1
Step 8050
Ar -9.240845e-01 -2.736429e-13 -4.833263e-12
1
Step 8100
Ar 9.610626e-01 -2.732476e-13 -4.826281e-12
1
Step 8150
Ar 2.709592e+00 -2.340093e-13 -4.133228e-12
1
Step 8200
Ar 4.072944e+00 -1.615058e-13 -2.852623e-12
1
Step 8250
Ar 4.857313e+00 -6.604375e-14 -1.166509e-12
1
Step 8300
Ar 4.951201e+00 3.880661e-14 6.854284e-13
1
Step 8350
Ar 4.341259e+00 1.381405e-13 2.439930e-12
1
Step 8400
Ar 3.114193e+00 2.178373e-13 3.847588e-12
1
Step 8450
Ar 1.444435e+00 2.665678e-13 4.708298e-12
1
Step 8500
Ar -4.306544e-01 2.774048e-13 4.899709e-12
1
Step 8550
Ar -2.244525e+00 2.488079e-13 4.394611e-12
1
Step 8600
Ar -3.739329e+00 1.848421e-13 3.264805e-12
1
Step 8650
Ar -4.702575e+00 9.460041e-14 1.670896e-12
1
Step 8700
Ar -4.997335e+00 -9.089016e-15 -1.605363e-13
1
Step 8750
Ar -4.581708e+00 -1.114864e-13 -1.969148e-12
1
Step 8800
Ar -3.514777e+00 -1.980357e-13 -3.497838e-12
1
Step 8850
Ar -1.948209e+00 -2.564335e-13 -4.529300e-12
1
Step 8900
Ar -1.046961e-01 -2.783785e-13 -4.916907e-12
1
Step 8950
Ar 1.753699e+00 -2.607511e-13 -4.605560e-12
1
Step 9000
Ar 3.362801e+00 -2.060571e-13 -3.639518e-12
1
Step 9050
Ar 4.493869e+00 -1.220714e-13 -2.156107e-12
1
Step 9100
Ar 4.986120e+00 -2.073289e-14 -3.661982e-13
1
Step 9150
Ar 4.769577e+00 8.355288e-14 1.475767e-12
1
Step 9200
Ar 3.875024e+00 1.759613e-13 3.107947e-12
1
Step 9250
Ar 2.429624e+00 2.433563e-13 4.298322e-12
1
Step 9300
Ar 6.388451e-01 2.761574e-13 4.877677e-12
1
Step 9350
Ar -1.242748e+00 2.697019e-13 4.763655e-12
1
Step 9400
Ar -2.947680e+00 2.249073e-13 3.972464e-12
1
Step 9450
Ar -4.233590e+00 1.481415e-13 2.616574e-12
1
Step 9500
Ar -4.917682e+00 5.031686e-14 8.887301e-13
1
Step 9550
Ar -4.902709e+00 -5.466047e-14 -9.654499e-13
1
Step 9600
Ar -4.190801e+00 -1.518676e-13 -2.682388e-12
1
Step 9650
Ar -2.883157e+00 -2.274863e-13 -4.018016e-12
1
Step 9700
Ar -1.165663e+00 -2.707671e-13 -4.782470e-12
1
Step 9750
Ar 7.175343e-01 -2.755575e-13 -4.867081e-12
1
Step 9800
Ar 2.498731e+00 -2.411765e-13 -4.259821e-12
1
Step 9850
Ar 3.924726e+00 -1.725115e-13 -3.047013e-12
1
Step 9900
Ar 4.792808e+00 -7.932338e-14 -1.401063e-12
1
Step 9950
Ar 4.979577e+00 2.514077e-14 4.440531e-13
