1
Step 120000
Ar 1.166543e+00 0.000000e+00 0.000000e+00
1
Step 121000
Ar 1.014755e+00 0.000000e+00 0.000000e+00
1
Step 122000
Ar 1.024354e+00 0.000000e+00 0.000000e+00
1
Step 123000
Ar 9.580570e-01 0.000000e+00 0.000000e+00
1
Step 124000
Ar 9.045522e-01 0.000000e+00 0.000000e+00
1
Step 125000
Ar 8.060862e-01 0.000000e+00 0.000000e+00
1
Step 126000
Ar 1.018111e+00 0.000000e+00 0.000000e+00
1
Step 127000
Ar 1.130466e+00 0.000000e+00 0.000000e+00
1
Step 128000
Ar 1.075640e+00 0.000000e+00 0.000000e+00
1
Step 129000
Ar 8.456715e-01 0.000000e+00 0.000000e+00
1
Step 130000
Ar 9.558478e-01 0.000000e+00 0.000000e+00
1
Step 131000
Ar 1.095482e+00 0.000000e+00 0.000000e+00
1
Step 132000
Ar 6.671595e-01 0.000000e+00 0.000000e+00
1
Step 133000
Ar 9.646760e-01 0.000000e+00 0.000000e+00
1
Step 134000
Ar 1.102816e+00 0.000000e+00 0.000000e+00
1
Step 135000
Ar 8.343152e-01 0.000000e+00 0.000000e+00
1
Step 136000
Ar 1.056879e+00 0.000000e+00 0.000000e+00
1
Step 137000
Ar 9.283938e-01 0.000000e+00 0.000000e+00
1
Step 138000
Ar 7.189845e-01 0.000000e+00 0.000000e+00
1
Step 139000
Ar 9.693679e-01 0.000000e+00 0.000000e+00
1
Step 140000
Ar 1.026972e+00 0.000000e+00 0.000000e+00
1
Step 141000
Ar 9.858538e-01 0.000000e+00 0.000000e+00
1
Step 142000
Ar 9.258800e-01 0.000000e+00 0.000000e+00
1
Step 143000
Ar 9.851220e-01 0.000000e+00 0.000000e+00
1
Step 144000
Ar 1.010611e+00 0.000000e+00 0.000000e+00
1
Step 145000
Ar 9.848848e-01 0.000000e+00 0.000000e+00
1
Step 146000
Ar 7.607143e-01 0.000000e+00 0.000000e+00
1
Step 147000
Ar 1.012480e+00 0.000000e+00 0.000000e+00
1
Step 148000
Ar 1.219134e+00 0.000000e+00 0.000000e+00
1
Step 149000
Ar 8.184091e-01 0.000000e+00 0.000000e+00
1
Step 150000
Ar 9.747412e-01 0.000000e+00 0.000000e+00
1
Step 151000
Ar 9.358557e-01 0.000000e+00 0.000000e+00
1
Step 152000
Ar 1.126692e+00 0.000000e+00 0.000000e+00
1
Step 153000
Ar 7.992524e-01 0.000000e+00 0.000000e+00
1
Step 154000
Ar 7.762518e-01 0.000000e+00 0.000000e+00
1
Step 155000
Ar 8.976070e-01 0.000000e+00 0.000000e+00
1
Step 156000
Ar 1.044835e+00 0.000000e+00 0.000000e+00
1
Step 157000
Ar 1.010913e+00 0.000000e+00 0.000000e+00
1
Step 158000
Ar 8.863748e-01 0.000000e+00 0.000000e+00
1
Step 159000
Ar 1.064961e+00 0.000000e+00 0.000000e+00
1
Step 160000
Ar 9.704523e-01 0.000000e+00 0.000000e+00
1
Step 161000
Ar 1.127312e+00 0.000000e+00 0.000000e+00
1
Step 162000
Ar 9.052658e-01 0.000000e+00 0.000000e+00
1
Step 163000
Ar 1.235406e+00 0.000000e+00 0.000000e+00
1
Step 164000
Ar 1.058232e+00 0.000000e+00 0.000000e+00
1
Step 165000
Ar 1.104467e+00 0.000000e+00 0.000000e+00
1
Step 166000
Ar 8.903760e-01 0.000000e+00 0.000000e+00
1
Step 167000
Ar 1.005350e+00 0.000000e+00 0.000000e+00
1
Step 168000
Ar 1.078003e+00 0.000000e+00 0.000000e+00
1
Step 169000
Ar 1.125773e+00 0.000000e+00 0.000000e+00
1
Step 170000
Ar 1.019376e+00 0.000000e+00 0.000000e+00
1
Step 171000
Ar 1.093497e+00 0.000000e+00 0.000000e+00
1
Step 172000
Ar 8.774523e-01 0.000000e+00 0.000000e+00
1
Step 173000
Ar 7.589975e-01 0.000000e+00 0.000000e+00
1
Step 174000
Ar 1.036741e+00 0.000000e+00 0.000000e+00
1
Step 175000
Ar 9.673446e-01 0.000000e+00 0.000000e+00
1
Step 176000
Ar 9.668442e-01 0.000000e+00 0.000000e+00
1
Step 177000
Ar 9.702941e-01 0.000000e+00 0.000000e+00
1
Step 178000
Ar 1.025408e+00 0.000000e+00 0.000000e+00
1
Step 179000
Ar 1.001325e+00 0.000000e+00 0.000000e+00
1
Step 180000
Ar 1.051277e+00 0.000000e+00 0.000000e+00
1
Step 181000
Ar 8.975661e-01 0.000000e+00 0.000000e+00
1
Step 182000
Ar 1.039940e+00 0.000000e+00 0.000000e+00
1
Step 183000
Ar 1.005699e+00 0.000000e+00 0.000000e+00
1
Step 184000
Ar 1.052932e+00 0.000000e+00 0.000000e+00
1
Step 185000
Ar 1.053213e+00 0.000000e+00 0.000000e+00
1
Step 186000
Ar 1.035378e+00 0.000000e+00 0.000000e+00
1
Step 187000
Ar 9.304799e-01 0.000000e+00 0.000000e+00
1
Step 188000
Ar 1.161875e+00 0.000000e+00 0.000000e+00
1
Step 189000
Ar 9.163042e-01 0.000000e+00 0.000000e+00
1
Step 190000
Ar 9.948945e-01 0.000000e+00 0.000000e+00
1
Step 191000
Ar 8.990736e-01 0.000000e+00 0.000000e+00
1
Step 192000
Ar 9.902918e-01 0.000000e+00 0.000000e+00
1
Step 193000
Ar 1.080064e+00 0.000000e+00 0.000000e+00
1
Step 194000
Ar 9.757833e-01 0.000000e+00 0.000000e+00
1
Step 195000
Ar 9.575970e-01 0.000000e+00 0.000000e+00
1
Step 196000
Ar 8.874326e-01 0.000000e+00 0.000000e+00
1
Step 197000
Ar 7.724766e-01 0.000000e+00 0.000000e+00
1
Step 198000
Ar 8.464855e-01 0.000000e+00 0.000000e+00
1
Step 199000
Ar 1.099540e+00 0.000000e+00 0.000000e+00
1
Step 200000
Ar 1.021753e+00 0.000000e+00 0.000000e+00
1
Step 201000
Ar 8.069497e-01 0.000000e+00 0.000000e+00
1
Step 202000
Ar 1.031991e+00 0.000000e+00 0.000000e+00
1
Step 203000
Ar 8.683301e-01 0.000000e+00 0.000000e+00
1
Step 204000
Ar 1.172886e+00 0.000000e+00 0.000000e+00
1
Step 205000
Ar 1.013445e+00 0.000000e+00 0.000000e+00
1
Step 206000
Ar 9.686092e-01 0.000000e+00 0.000000e+00
1
Step 207000
Ar 1.031350e+00 0.000000e+00 0.000000e+00
1
Step 208000
Ar 1.033172e+00 0.000000e+00 0.000000e+00
1
Step 209000
Ar 9.825468e-01 0.000000e+00 0.000000e+00
1
Step 210000
Ar 1.054960e+00 0.000000e+00 0.000000e+00
1
Step 211000
Ar 1.015343e+00 0.000000e+00 0.000000e+00
1
Step 212000
Ar 6.191464e-01 0.000000e+00 0.000000e+00
1
Step 213000
Ar 8.667330e-01 0.000000e+00 0.000000e+00
1
Step 214000
Ar 9.951579e-01 0.000000e+00 0.000000e+00
1
Step 215000
Ar 1.001284e+00 0.000000e+00 0.000000e+00
1
Step 216000
Ar 9.892174e-01 0.000000e+00 0.000000e+00
1
Step 217000
Ar 9.883088e-01 0.000000e+00 0.000000e+00
1
Step 218000
Ar 1.109041e+00 0.000000e+00 0.000000e+00
1
Step 219000
Ar 8.654189e-01 0.000000e+00 0.000000e+00
1
Step 220000
Ar 9.525463e-01 0.000000e+00 0.000000e+00
1
Step 221000
Ar 9.698706e-01 0.000000e+00 0.000000e+00
1
Step 222000
Ar 1.127635e+00 0.000000e+00 0.000000e+00
1
Step 223000
Ar 9.960174e-01 0.000000e+00 0.000000e+00
1
Step 224000
Ar 1.003270e+00 0.000000e+00 0.000000e+00
1
Step 225000
Ar 1.044579e+00 0.000000e+00 0.000000e+00
1
Step 226000
Ar 1.070034e+00 0.000000e+00 0.000000e+00
1
Step 227000
Ar 9.982751e-01 0.000000e+00 0.000000e+00
1
Step 228000
Ar 1.242516e+00 0.000000e+00 0.000000e+00
1
Step 229000
Ar 1.037519e+00 0.000000e+00 0.000000e+00
1
Step 230000
Ar 1.001542e+00 0.000000e+00 0.000000e+00
1
Step 231000
Ar 1.013532e+00 0.000000e+00 0.000000e+00
1
Step 232000
Ar 1.032402e+00 0.000000e+00 0.000000e+00
1
Step 233000
Ar 1.146322e+00 0.000000e+00 0.000000e+00
1
Step 234000
Ar 1.019425e+00 0.000000e+00 0.000000e+00
1
Step 235000
Ar 1.074323e+00 0.000000e+00 0.000000e+00
1
Step 236000
Ar 1.055379e+00 0.000000e+00 0.000000e+00
1
Step 237000
Ar 1.097676e+00 0.000000e+00 0.000000e+00
1
Step 238000
Ar 1.080310e+00 0.000000e+00 0.000000e+00
1
Step 239000
Ar 9.735017e-01 0.000000e+00 0.000000e+00
1
Step 240000
Ar 9.973252e-01 0.000000e+00 0.000000e+00
1
Step 241000
Ar 1.078064e+00 0.000000e+00 0.000000e+00
1
Step 242000
Ar 9.841040e-01 0.000000e+00 0.000000e+00
1
Step 243000
Ar 1.209267e+00 0.000000e+00 0.000000e+00
1
Step 244000
Ar 1.072151e+00 0.000000e+00 0.000000e+00
1
Step 245000
Ar 1.161909e+00 0.000000e+00 0.000000e+00
1
Step 246000
Ar 1.066412e+00 0.000000e+00 0.000000e+00
1
Step 247000
Ar 9.993626e-01 0.000000e+00 0.000000e+00
1
Step 248000
Ar 1.126666e+00 0.000000e+00 0.000000e+00
1
Step 249000
Ar 1.002512e+00 0.000000e+00 0.000000e+00
1
Step 250000
Ar 1.036549e+00 0.000000e+00 0.000000e+00
1
Step 251000
Ar 1.180029e+00 0.000000e+00 0.000000e+00
1
Step 252000
Ar 1.201409e+00 0.000000e+00 0.000000e+00
1
Step 253000
Ar 1.010407e+00 0.000000e+00 0.000000e+00
1
Step 254000
Ar 1.036585e+00 0.000000e+00 0.000000e+00
1
Step 255000
Ar 1.027180e+00 0.000000e+00 0.000000e+00
1
Step 256000
Ar 1.115444e+00 0.000000e+00 0.000000e+00
1
Step 257000
Ar 9.867038e-01 0.000000e+00 0.000000e+00
1
Step 258000
Ar 9.882784e-01 0.000000e+00 0.000000e+00
1
Step 259000
Ar 1.067737e+00 0.000000e+00 0.000000e+00
1
Step 260000
Ar 1.041184e+00 0.000000e+00 0.000000e+00
1
Step 261000
Ar 1.090573e+00 0.000000e+00 0.000000e+00
1
Step 262000
Ar 1.120543e+00 0.000000e+00 0.000000e+00
1
Step 263000
Ar 1.060170e+00 0.000000e+00 0.000000e+00
1
Step 264000
Ar 1.059759e+00 0.000000e+00 0.000000e+00
1
Step 265000
Ar 1.075270e+00 0.000000e+00 0.000000e+00
1
Step 266000
Ar 1.055346e+00 0.000000e+00 0.000000e+00
1
Step 267000
Ar 1.080087e+00 0.000000e+00 0.000000e+00
1
Step 268000
Ar 1.129889e+00 0.000000e+00 0.000000e+00
1
Step 269000
Ar 1.067344e+00 0.000000e+00 0.000000e+00
1
Step 270000
Ar 1.095015e+00 0.000000e+00 0.000000e+00
1
Step 271000
Ar 1.010845e+00 0.000000e+00 0.000000e+00
1
Step 272000
Ar 1.059666e+00 0.000000e+00 0.000000e+00
1
Step 273000
Ar 1.000343e+00 0.000000e+00 0.000000e+00
1
Step 274000
Ar 1.064446e+00 0.000000e+00 0.000000e+00
1
Step 275000
Ar 1.085439e+00 0.000000e+00 0.000000e+00
1
Step 276000
Ar 1.086390e+00 0.000000e+00 0.000000e+00
1
Step 277000
Ar 1.145378e+00 0.000000e+00 0.000000e+00
1
Step 278000
Ar 1.137836e+00 0.000000e+00 0.000000e+00
1
Step 279000
Ar 1.077209e+00 0.000000e+00 0.000000e+00
1
Step 280000
Ar 1.037379e+00 0.000000e+00 0.000000e+00
1
Step 281000
Ar 9.870396e-01 0.000000e+00 0.000000e+00
1
Step 282000
Ar 9.749680e-01 0.000000e+00 0.000000e+00
1
Step 283000
Ar 1.048398e+00 0.000000e+00 0.000000e+00
1
Step 284000
Ar 1.122115e+00 0.000000e+00 0.000000e+00
1
Step 285000
Ar 1.076136e+00 0.000000e+00 0.000000e+00
1
Step 286000
Ar 9.950129e-01 0.000000e+00 0.000000e+00
1
Step 287000
Ar 1.037001e+00 0.000000e+00 0.000000e+00
1
Step 288000
Ar 9.963562e-01 0.000000e+00 0.000000e+00
1
Step 289000
Ar 1.063435e+00 0.000000e+00 0.000000e+00
1
Step 290000
Ar 9.981408e-01 0.000000e+00 0.000000e+00
1
Step 291000
Ar 1.103742e+00 0.000000e+00 0.000000e+00
1
Step 292000
Ar 1.078910e+00 0.000000e+00 0.000000e+00
1
Step 293000
Ar 1.140282e+00 0.000000e+00 0.000000e+00
1
Step 294000
Ar 1.037061e+00 0.000000e+00 0.000000e+00
1
Step 295000
Ar 1.053047e+00 0.000000e+00 0.000000e+00
1
Step 296000
Ar 9.789168e-01 0.000000e+00 0.000000e+00
1
Step 297000
Ar 1.035964e+00 0.000000e+00 0.000000e+00
1
Step 298000
Ar 1.112026e+00 0.000000e+00 0.000000e+00
1
Step 299000
Ar 1.062844e+00 0.000000e+00 0.000000e+00
1
Step 300000
Ar 1.005128e+00 0.000000e+00 0.000000e+00
1
Step 301000
Ar 1.079959e+00 0.000000e+00 0.000000e+00
1
Step 302000
Ar 1.130558e+00 0.000000e+00 0.000000e+00
1
Step 303000
Ar 1.080699e+00 0.000000e+00 0.000000e+00
1
Step 304000
Ar 1.036129e+00 0.000000e+00 0.000000e+00
1
Step 305000
Ar 1.028033e+00 0.000000e+00 0.000000e+00
1
Step 306000
Ar 9.800324e-01 0.000000e+00 0.000000e+00
1
Step 307000
Ar 1.041886e+00 0.000000e+00 0.000000e+00
1
Step 308000
Ar 1.170673e+00 0.000000e+00 0.000000e+00
1
Step 309000
Ar 1.057669e+00 0.000000e+00 0.000000e+00
1
Step 310000
Ar 1.072358e+00 0.000000e+00 0.000000e+00
1
Step 311000
Ar 1.026712e+00 0.000000e+00 0.000000e+00
1
Step 312000
Ar 9.923321e-01 0.000000e+00 0.000000e+00
1
Step 313000
Ar 9.887504e-01 0.000000e+00 0.000000e+00
1
Step 314000
Ar 9.977497e-01 0.000000e+00 0.000000e+00
1
Step 315000
Ar 1.062094e+00 0.000000e+00 0.000000e+00
1
Step 316000
Ar 1.028857e+00 0.000000e+00 0.000000e+00
1
Step 317000
Ar 1.057016e+00 0.000000e+00 0.000000e+00
1
Step 318000
Ar 9.873246e-01 0.000000e+00 0.000000e+00
1
Step 319000
Ar 1.130059e+00 0.000000e+00 0.000000e+00
1
Step 320000
Ar 9.883726e-01 0.000000e+00 0.000000e+00
1
Step 321000
Ar 1.078095e+00 0.000000e+00 0.000000e+00
1
Step 322000
Ar 1.045270e+00 0.000000e+00 0.000000e+00
1
Step 323000
Ar 9.954742e-01 0.000000e+00 0.000000e+00
1
Step 324000
Ar 1.053528e+00 0.000000e+00 0.000000e+00
1
Step 325000
Ar 1.042966e+00 0.000000e+00 0.000000e+00
1
Step 326000
Ar 1.018527e+00 0.000000e+00 0.000000e+00
1
Step 327000
Ar 1.005452e+00 0.000000e+00 0.000000e+00
1
Step 328000
Ar 1.025991e+00 0.000000e+00 0.000000e+00
1
Step 329000
Ar 9.870852e-01 0.000000e+00 0.000000e+00
1
Step 330000
Ar 1.009392e+00 0.000000e+00 0.000000e+00
1
Step 331000
Ar 9.847925e-01 0.000000e+00 0.000000e+00
1
Step 332000
Ar 1.117969e+00 0.000000e+00 0.000000e+00
1
Step 333000
Ar 1.027673e+00 0.000000e+00 0.000000e+00
1
Step 334000
Ar 1.061470e+00 0.000000e+00 0.000000e+00
1
Step 335000
Ar 1.041165e+00 0.000000e+00 0.000000e+00
1
Step 336000
Ar 1.000306e+00 0.000000e+00 0.000000e+00
1
Step 337000
Ar 1.058758e+00 0.000000e+00 0.000000e+00
1
Step 338000
Ar 1.038463e+00 0.000000e+00 0.000000e+00
1
Step 339000
Ar 1.114808e+00 0.000000e+00 0.000000e+00
1
Step 340000
Ar 1.070689e+00 0.000000e+00 0.000000e+00
1
Step 341000
Ar 1.083509e+00 0.000000e+00 0.000000e+00
1
Step 342000
Ar 1.068802e+00 0.000000e+00 0.000000e+00
1
Step 343000
Ar 1.048127e+00 0.000000e+00 0.000000e+00
1
Step 344000
Ar 1.035610e+00 0.000000e+00 0.000000e+00
1
Step 345000
Ar 9.772763e-01 0.000000e+00 0.000000e+00
1
Step 346000
Ar 9.957507e-01 0.000000e+00 0.000000e+00
1
Step 347000
Ar 1.080965e+00 0.000000e+00 0.000000e+00
1
Step 348000
Ar 1.090750e+00 0.000000e+00 0.000000e+00
1
Step 349000
Ar 1.194774e+00 0.000000e+00 0.000000e+00
1
Step 350000
Ar 1.109457e+00 0.000000e+00 0.000000e+00
1
Step 351000
Ar 1.015990e+00 0.000000e+00 0.000000e+00
1
Step 352000
Ar 1.075895e+00 0.000000e+00 0.000000e+00
1
Step 353000
Ar 1.045803e+00 0.000000e+00 0.000000e+00
1
Step 354000
Ar 9.718853e-01 0.000000e+00 0.000000e+00
1
Step 355000
Ar 1.156300e+00 0.000000e+00 0.000000e+00
1
Step 356000
Ar 1.061468e+00 0.000000e+00 0.000000e+00
1
Step 357000
Ar 9.886867e-01 0.000000e+00 0.000000e+00
1
Step 358000
Ar 1.009522e+00 0.000000e+00 0.000000e+00
1
Step 359000
Ar 1.144286e+00 0.000000e+00 0.000000e+00
1
Step 360000
Ar 1.060983e+00 0.000000e+00 0.000000e+00
1
Step 361000
Ar 9.854587e-01 0.000000e+00 0.000000e+00
1
Step 362000
Ar 9.771494e-01 0.000000e+00 0.000000e+00
1
Step 363000
Ar 9.854227e-01 0.000000e+00 0.000000e+00
1
Step 364000
Ar 1.084044e+00 0.000000e+00 0.000000e+00
1
Step 365000
Ar 1.108386e+00 0.000000e+00 0.000000e+00
1
Step 366000
Ar 1.096441e+00 0.000000e+00 0.000000e+00
1
Step 367000
Ar 1.175679e+00 0.000000e+00 0.000000e+00
1
Step 368000
Ar 9.656453e-01 0.000000e+00 0.000000e+00
1
Step 369000
Ar 1.026662e+00 0.000000e+00 0.000000e+00
1
Step 370000
Ar 1.003816e+00 0.000000e+00 0.000000e+00
1
Step 371000
Ar 1.048480e+00 0.000000e+00 0.000000e+00
1
Step 372000
Ar 1.031175e+00 0.000000e+00 0.000000e+00
1
Step 373000
Ar 1.068465e+00 0.000000e+00 0.000000e+00
1
Step 374000
Ar 1.143358e+00 0.000000e+00 0.000000e+00
1
Step 375000
Ar 9.956750e-01 0.000000e+00 0.000000e+00
1
Step 376000
Ar 9.655840e-01 0.000000e+00 0.000000e+00
1
Step 377000
Ar 1.134562e+00 0.000000e+00 0.000000e+00
1
Step 378000
Ar 1.133470e+00 0.000000e+00 0.000000e+00
1
Step 379000
Ar 1.150637e+00 0.000000e+00 0.000000e+00
1
Step 380000
Ar 1.088342e+00 0.000000e+00 0.000000e+00
1
Step 381000
Ar 9.888617e-01 0.000000e+00 0.000000e+00
1
Step 382000
Ar 1.221877e+00 0.000000e+00 0.000000e+00
1
Step 383000
Ar 9.700427e-01 0.000000e+00 0.000000e+00
1
Step 384000
Ar 1.153231e+00 0.000000e+00 0.000000e+00
1
Step 385000
Ar 1.014822e+00 0.000000e+00 0.000000e+00
1
Step 386000
Ar 1.028051e+00 0.000000e+00 0.000000e+00
1
Step 387000
Ar 1.118851e+00 0.000000e+00 0.000000e+00
1
Step 388000
Ar 1.009350e+00 0.000000e+00 0.000000e+00
1
Step 389000
Ar 1.016040e+00 0.000000e+00 0.000000e+00
1
Step 390000
Ar 1.037336e+00 0.000000e+00 0.000000e+00
1
Step 391000
Ar 1.002205e+00 0.000000e+00 0.000000e+00
1
Step 392000
Ar 1.066822e+00 0.000000e+00 0.000000e+00
1
Step 393000
Ar 1.030865e+00 0.000000e+00 0.000000e+00
1
Step 394000
Ar 9.779032e-01 0.000000e+00 0.000000e+00
1
Step 395000
Ar 1.265637e+00 0.000000e+00 0.000000e+00
1
Step 396000
Ar 9.938674e-01 0.000000e+00 0.000000e+00
1
Step 397000
Ar 1.017156e+00 0.000000e+00 0.000000e+00
1
Step 398000
Ar 1.057401e+00 0.000000e+00 0.000000e+00
1
Step 399000
Ar 9.781456e-01 0.000000e+00 0.000000e+00
1
Step 400000
Ar 1.059947e+00 0.000000e+00 0.000000e+00
1
Step 401000
Ar 1.168456e+00 0.000000e+00 0.000000e+00
1
Step 402000
Ar 1.003919e+00 0.000000e+00 0.000000e+00
1
Step 403000
Ar 1.066812e+00 0.000000e+00 0.000000e+00
1
Step 404000
Ar 1.132168e+00 0.000000e+00 0.000000e+00
1
Step 405000
Ar 9.749802e-01 0.000000e+00 0.000000e+00
1
Step 406000
Ar 9.779114e-01 0.000000e+00 0.000000e+00
1
Step 407000
Ar 1.122443e+00 0.000000e+00 0.000000e+00
1
Step 408000
Ar 1.245817e+00 0.000000e+00 0.000000e+00
1
Step 409000
Ar 9.973445e-01 0.000000e+00 0.000000e+00
1
Step 410000
Ar 1.065232e+00 0.000000e+00 0.000000e+00
1
Step 411000
Ar 9.830931e-01 0.000000e+00 0.000000e+00
1
Step 412000
Ar 1.047674e+00 0.000000e+00 0.000000e+00
1
Step 413000
Ar 1.192988e+00 0.000000e+00 0.000000e+00
1
Step 414000
Ar 1.076441e+00 0.000000e+00 0.000000e+00
1
Step 415000
Ar 1.053126e+00 0.000000e+00 0.000000e+00
1
Step 416000
Ar 1.086038e+00 0.000000e+00 0.000000e+00
1
Step 417000
Ar 1.028617e+00 0.000000e+00 0.000000e+00
1
Step 418000
Ar 1.114063e+00 0.000000e+00 0.000000e+00
1
Step 419000
Ar 1.112103e+00 0.000000e+00 0.000000e+00
1
Step 420000
Ar 9.790919e-01 0.000000e+00 0.000000e+00
1
Step 421000
Ar 1.068240e+00 0.000000e+00 0.000000e+00
1
Step 422000
Ar 1.015289e+00 0.000000e+00 0.000000e+00
1
Step 423000
Ar 9.907554e-01 0.000000e+00 0.000000e+00
1
Step 424000
Ar 1.000620e+00 0.000000e+00 0.000000e+00
1
Step 425000
Ar 1.113938e+00 0.000000e+00 0.000000e+00
1
Step 426000
Ar 1.185220e+00 0.000000e+00 0.000000e+00
1
Step 427000
Ar 1.054673e+00 0.000000e+00 0.000000e+00
1
Step 428000
Ar 1.165164e+00 0.000000e+00 0.000000e+00
1
Step 429000
Ar 1.019128e+00 0.000000e+00 0.000000e+00
1
Step 430000
Ar 1.046634e+00 0.000000e+00 0.000000e+00
1
Step 431000
Ar 1.017375e+00 0.000000e+00 0.000000e+00
1
Step 432000
Ar 1.092888e+00 0.000000e+00 0.000000e+00
1
Step 433000
Ar 1.091546e+00 0.000000e+00 0.000000e+00
1
Step 434000
Ar 1.206095e+00 0.000000e+00 0.000000e+00
1
Step 435000
Ar 1.001663e+00 0.000000e+00 0.000000e+00
1
Step 436000
Ar 1.050471e+00 0.000000e+00 0.000000e+00
1
Step 437000
Ar 9.947077e-01 0.000000e+00 0.000000e+00
1
Step 438000
Ar 9.772097e-01 0.000000e+00 0.000000e+00
1
Step 439000
Ar 1.032227e+00 0.000000e+00 0.000000e+00
1
Step 440000
Ar 1.055377e+00 0.000000e+00 0.000000e+00
1
Step 441000
Ar 1.072733e+00 0.000000e+00 0.000000e+00
1
Step 442000
Ar 1.007405e+00 0.000000e+00 0.000000e+00
1
Step 443000
Ar 1.074801e+00 0.000000e+00 0.000000e+00
1
Step 444000
Ar 1.109364e+00 0.000000e+00 0.000000e+00
1
Step 445000
Ar 9.853750e-01 0.000000e+00 0.000000e+00
1
Step 446000
Ar 1.034910e+00 0.000000e+00 0.000000e+00
1
Step 447000
Ar 1.060556e+00 0.000000e+00 0.000000e+00
1
Step 448000
Ar 1.205401e+00 0.000000e+00 0.000000e+00
1
Step 449000
Ar 1.085275e+00 0.000000e+00 0.000000e+00
1
Step 450000
Ar 1.011777e+00 0.000000e+00 0.000000e+00
1
Step 451000
Ar 1.156058e+00 0.000000e+00 0.000000e+00
1
Step 452000
Ar 1.053899e+00 0.000000e+00 0.000000e+00
1
Step 453000
Ar 9.702135e-01 0.000000e+00 0.000000e+00
1
Step 454000
Ar 1.114097e+00 0.000000e+00 0.000000e+00
1
Step 455000
Ar 1.121719e+00 0.000000e+00 0.000000e+00
1
Step 456000
Ar 9.991116e-01 0.000000e+00 0.000000e+00
1
Step 457000
Ar 1.097954e+00 0.000000e+00 0.000000e+00
1
Step 458000
Ar 1.125394e+00 0.000000e+00 0.000000e+00
1
Step 459000
Ar 1.040037e+00 0.000000e+00 0.000000e+00
1
Step 460000
Ar 1.037326e+00 0.000000e+00 0.000000e+00
1
Step 461000
Ar 1.122385e+00 0.000000e+00 0.000000e+00
1
Step 462000
Ar 1.018378e+00 0.000000e+00 0.000000e+00
1
Step 463000
Ar 1.108513e+00 0.000000e+00 0.000000e+00
1
Step 464000
Ar 9.870893e-01 0.000000e+00 0.000000e+00
1
Step 465000
Ar 1.202852e+00 0.000000e+00 0.000000e+00
1
Step 466000
Ar 9.766173e-01 0.000000e+00 0.000000e+00
1
Step 467000
Ar 1.199384e+00 0.000000e+00 0.000000e+00
1
Step 468000
Ar 1.034822e+00 0.000000e+00 0.000000e+00
1
Step 469000
Ar 1.151608e+00 0.000000e+00 0.000000e+00
1
Step 470000
Ar 1.025328e+00 0.000000e+00 0.000000e+00
1
Step 471000
Ar 9.942742e-01 0.000000e+00 0.000000e+00
1
Step 472000
Ar 1.060171e+00 0.000000e+00 0.000000e+00
1
Step 473000
Ar 1.095428e+00 0.000000e+00 0.000000e+00
1
Step 474000
Ar 9.924715e-01 0.000000e+00 0.000000e+00
1
Step 475000
Ar 1.125605e+00 0.000000e+00 0.000000e+00
1
Step 476000
Ar 1.045209e+00 0.000000e+00 0.000000e+00
1
Step 477000
Ar 1.046803e+00 0.000000e+00 0.000000e+00
1
Step 478000
Ar 1.181605e+00 0.000000e+00 0.000000e+00
1
Step 479000
Ar 1.065979e+00 0.000000e+00 0.000000e+00
1
Step 480000
Ar 1.037648e+00 0.000000e+00 0.000000e+00
1
Step 481000
Ar 9.795782e-01 0.000000e+00 0.000000e+00
1
Step 482000
Ar 1.074108e+00 0.000000e+00 0.000000e+00
1
Step 483000
Ar 1.008945e+00 0.000000e+00 0.000000e+00
1
Step 484000
Ar 1.047967e+00 0.000000e+00 0.000000e+00
1
Step 485000
Ar 9.739150e-01 0.000000e+00 0.000000e+00
1
Step 486000
Ar 1.149136e+00 0.000000e+00 0.000000e+00
1
Step 487000
Ar 1.088581e+00 0.000000e+00 0.000000e+00
1
Step 488000
Ar 1.255992e+00 0.000000e+00 0.000000e+00
1
Step 489000
Ar 1.003479e+00 0.000000e+00 0.000000e+00
1
Step 490000
Ar 9.623104e-01 0.000000e+00 0.000000e+00
1
Step 491000
Ar 1.076035e+00 0.000000e+00 0.000000e+00
1
Step 492000
Ar 1.090400e+00 0.000000e+00 0.000000e+00
1
Step 493000
Ar 1.060189e+00 0.000000e+00 0.000000e+00
1
Step 494000
Ar 1.075621e+00 0.000000e+00 0.000000e+00
1
Step 495000
Ar 1.272884e+00 0.000000e+00 0.000000e+00
1
Step 496000
Ar 1.029156e+00 0.000000e+00 0.000000e+00
1
Step 497000
Ar 9.855327e-01 0.000000e+00 0.000000e+00
1
Step 498000
Ar 1.205082e+00 0.000000e+00 0.000000e+00
1
Step 499000
Ar 1.168119e+00 0.000000e+00 0.000000e+00
1
Step 500000
Ar 1.023048e+00 0.000000e+00 0.000000e+00
1
Step 501000
Ar 1.018907e+00 0.000000e+00 0.000000e+00
1
Step 502000
Ar 1.036735e+00 0.000000e+00 0.000000e+00
1
Step 503000
Ar 1.245797e+00 0.000000e+00 0.000000e+00
1
Step 504000
Ar 1.126578e+00 0.000000e+00 0.000000e+00
1
Step 505000
Ar 1.073068e+00 0.000000e+00 0.000000e+00
1
Step 506000
Ar 1.091756e+00 0.000000e+00 0.000000e+00
1
Step 507000
Ar 1.021584e+00 0.000000e+00 0.000000e+00
1
Step 508000
Ar 9.853256e-01 0.000000e+00 0.000000e+00
1
Step 509000
Ar 9.973341e-01 0.000000e+00 0.000000e+00
1
Step 510000
Ar 1.035718e+00 0.000000e+00 0.000000e+00
1
Step 511000
Ar 1.048601e+00 0.000000e+00 0.000000e+00
1
Step 512000
Ar 1.023642e+00 0.000000e+00 0.000000e+00
1
Step 513000
Ar 1.068999e+00 0.000000e+00 0.000000e+00
1
Step 514000
Ar 1.177895e+00 0.000000e+00 0.000000e+00
1
Step 515000
Ar 1.104250e+00 0.000000e+00 0.000000e+00
1
Step 516000
Ar 9.812251e-01 0.000000e+00 0.000000e+00
1
Step 517000
Ar 1.128336e+00 0.000000e+00 0.000000e+00
1
Step 518000
Ar 1.033522e+00 0.000000e+00 0.000000e+00
1
Step 519000
Ar 1.144759e+00 0.000000e+00 0.000000e+00
1
Step 520000
Ar 1.021220e+00 0.000000e+00 0.000000e+00
1
Step 521000
Ar 1.030769e+00 0.000000e+00 0.000000e+00
1
Step 522000
Ar 9.940593e-01 0.000000e+00 0.000000e+00
1
Step 523000
Ar 1.195461e+00 0.000000e+00 0.000000e+00
1
Step 524000
Ar 1.034734e+00 0.000000e+00 0.000000e+00
1
Step 525000
Ar 1.152688e+00 0.000000e+00 0.000000e+00
1
Step 526000
Ar 1.033915e+00 0.000000e+00 0.000000e+00
1
Step 527000
Ar 9.793634e-01 0.000000e+00 0.000000e+00
1
Step 528000
Ar 1.140051e+00 0.000000e+00 0.000000e+00
1
Step 529000
Ar 1.090219e+00 0.000000e+00 0.000000e+00
1
Step 530000
Ar 1.114139e+00 0.000000e+00 0.000000e+00
1
Step 531000
Ar 9.831703e-01 0.000000e+00 0.000000e+00
1
Step 532000
Ar 1.144500e+00 0.000000e+00 0.000000e+00
1
Step 533000
Ar 1.037326e+00 0.000000e+00 0.000000e+00
1
Step 534000
Ar 9.828261e-01 0.000000e+00 0.000000e+00
1
Step 535000
Ar 9.778613e-01 0.000000e+00 0.000000e+00
1
Step 536000
Ar 1.100556e+00 0.000000e+00 0.000000e+00
1
Step 537000
Ar 1.013149e+00 0.000000e+00 0.000000e+00
1
Step 538000
Ar 1.107136e+00 0.000000e+00 0.000000e+00
1
Step 539000
Ar 1.065945e+00 0.000000e+00 0.000000e+00
1
Step 540000
Ar 1.192518e+00 0.000000e+00 0.000000e+00
1
Step 541000
Ar 1.192372e+00 0.000000e+00 0.000000e+00
1
Step 542000
Ar 1.041714e+00 0.000000e+00 0.000000e+00
1
Step 543000
Ar 1.004110e+00 0.000000e+00 0.000000e+00
1
Step 544000
Ar 1.038638e+00 0.000000e+00 0.000000e+00
1
Step 545000
Ar 1.050818e+00 0.000000e+00 0.000000e+00
1
Step 546000
Ar 1.031198e+00 0.000000e+00 0.000000e+00
1
Step 547000
Ar 1.128540e+00 0.000000e+00 0.000000e+00
1
Step 548000
Ar 1.122422e+00 0.000000e+00 0.000000e+00
1
Step 549000
Ar 1.065076e+00 0.000000e+00 0.000000e+00
1
Step 550000
Ar 9.999429e-01 0.000000e+00 0.000000e+00
1
Step 551000
Ar 1.139155e+00 0.000000e+00 0.000000e+00
1
Step 552000
Ar 1.020624e+00 0.000000e+00 0.000000e+00
1
Step 553000
Ar 1.047147e+00 0.000000e+00 0.000000e+00
1
Step 554000
Ar 9.977656e-01 0.000000e+00 0.000000e+00
1
Step 555000
Ar 1.053478e+00 0.000000e+00 0.000000e+00
1
Step 556000
Ar 1.005795e+00 0.000000e+00 0.000000e+00
1
Step 557000
Ar 1.124632e+00 0.000000e+00 0.000000e+00
1
Step 558000
Ar 1.075180e+00 0.000000e+00 0.000000e+00
1
Step 559000
Ar 1.136565e+00 0.000000e+00 0.000000e+00
1
Step 560000
Ar 9.739268e-01 0.000000e+00 0.000000e+00
1
Step 561000
Ar 1.079316e+00 0.000000e+00 0.000000e+00
1
Step 562000
Ar 9.833404e-01 0.000000e+00 0.000000e+00
1
Step 563000
Ar 1.016100e+00 0.000000e+00 0.000000e+00
1
Step 564000
Ar 1.087676e+00 0.000000e+00 0.000000e+00
1
Step 565000
Ar 9.872066e-01 0.000000e+00 0.000000e+00
1
Step 566000
Ar 1.066031e+00 0.000000e+00 0.000000e+00
1
Step 567000
Ar 1.055715e+00 0.000000e+00 0.000000e+00
1
Step 568000
Ar 1.086184e+00 0.000000e+00 0.000000e+00
1
Step 569000
Ar 1.048270e+00 0.000000e+00 0.000000e+00
1
Step 570000
Ar 9.737068e-01 0.000000e+00 0.000000e+00
1
Step 571000
Ar 1.098969e+00 0.000000e+00 0.000000e+00
1
Step 572000
Ar 1.274280e+00 0.000000e+00 0.000000e+00
1
Step 573000
Ar 1.038037e+00 0.000000e+00 0.000000e+00
1
Step 574000
Ar 1.012053e+00 0.000000e+00 0.000000e+00
1
Step 575000
Ar 1.139542e+00 0.000000e+00 0.000000e+00
1
Step 576000
Ar 1.107862e+00 0.000000e+00 0.000000e+00
1
Step 577000
Ar 1.004445e+00 0.000000e+00 0.000000e+00
1
Step 578000
Ar 1.040316e+00 0.000000e+00 0.000000e+00
1
Step 579000
Ar 1.051009e+00 0.000000e+00 0.000000e+00
1
Step 580000
Ar 9.690609e-01 0.000000e+00 0.000000e+00
1
Step 581000
Ar 1.101357e+00 0.000000e+00 0.000000e+00
1
Step 582000
Ar 9.783486e-01 0.000000e+00 0.000000e+00
1
Step 583000
Ar 1.106402e+00 0.000000e+00 0.000000e+00
1
Step 584000
Ar 1.050311e+00 0.000000e+00 0.000000e+00
1
Step 585000
Ar 1.158906e+00 0.000000e+00 0.000000e+00
1
Step 586000
Ar 1.054427e+00 0.000000e+00 0.000000e+00
1
Step 587000
Ar 1.082804e+00 0.000000e+00 0.000000e+00
1
Step 588000
Ar 9.688240e-01 0.000000e+00 0.000000e+00
1
Step 589000
Ar 1.104622e+00 0.000000e+00 0.000000e+00
1
Step 590000
Ar 1.086366e+00 0.000000e+00 0.000000e+00
1
Step 591000
Ar 1.005619e+00 0.000000e+00 0.000000e+00
1
Step 592000
Ar 9.832919e-01 0.000000e+00 0.000000e+00
1
Step 593000
Ar 1.110580e+00 0.000000e+00 0.000000e+00
1
Step 594000
Ar 1.066316e+00 0.000000e+00 0.000000e+00
1
Step 595000
Ar 9.742564e-01 0.000000e+00 0.000000e+00
1
Step 596000
Ar 1.048063e+00 0.000000e+00 0.000000e+00
1
Step 597000
Ar 1.012103e+00 0.000000e+00 0.000000e+00
1
Step 598000
Ar 1.098222e+00 0.000000e+00 0.000000e+00
1
Step 599000
Ar 1.198529e+00 0.000000e+00 0.000000e+00
1
Step 600000
Ar 1.010393e+00 0.000000e+00 0.000000e+00
1
Step 601000
Ar 1.097968e+00 0.000000e+00 0.000000e+00
1
Step 602000
Ar 9.955116e-01 0.000000e+00 0.000000e+00
1
Step 603000
Ar 1.226689e+00 0.000000e+00 0.000000e+00
1
Step 604000
Ar 1.022317e+00 0.000000e+00 0.000000e+00
1
Step 605000
Ar 1.029856e+00 0.000000e+00 0.000000e+00
1
Step 606000
Ar 1.021518e+00 0.000000e+00 0.000000e+00
1
Step 607000
Ar 1.070321e+00 0.000000e+00 0.000000e+00
1
Step 608000
Ar 1.065723e+00 0.000000e+00 0.000000e+00
1
Step 609000
Ar 1.027895e+00 0.000000e+00 0.000000e+00
1
Step 610000
Ar 1.053649e+00 0.000000e+00 0.000000e+00
1
Step 611000
Ar 9.906097e-01 0.000000e+00 0.000000e+00
1
Step 612000
Ar 1.122459e+00 0.000000e+00 0.000000e+00
1
Step 613000
Ar 1.047759e+00 0.000000e+00 0.000000e+00
1
Step 614000
Ar 1.040202e+00 0.000000e+00 0.000000e+00
1
Step 615000
Ar 1.168028e+00 0.000000e+00 0.000000e+00
1
Step 616000
Ar 1.067520e+00 0.000000e+00 0.000000e+00
1
Step 617000
Ar 1.088554e+00 0.000000e+00 0.000000e+00
1
Step 618000
Ar 1.033381e+00 0.000000e+00 0.000000e+00
1
Step 619000
Ar 1.076401e+00 0.000000e+00 0.000000e+00
1
Step 620000
Ar 1.027688e+00 0.000000e+00 0.000000e+00
1
Step 621000
Ar 1.089748e+00 0.000000e+00 0.000000e+00
1
Step 622000
Ar 9.987211e-01 0.000000e+00 0.000000e+00
1
Step 623000
Ar 1.113068e+00 0.000000e+00 0.000000e+00
1
Step 624000
Ar 9.691973e-01 0.000000e+00 0.000000e+00
1
Step 625000
Ar 1.021070e+00 0.000000e+00 0.000000e+00
1
Step 626000
Ar 1.192575e+00 0.000000e+00 0.000000e+00
1
Step 627000
Ar 1.010641e+00 0.000000e+00 0.000000e+00
1
Step 628000
Ar 9.749063e-01 0.000000e+00 0.000000e+00
1
Step 629000
Ar 1.079128e+00 0.000000e+00 0.000000e+00
1
Step 630000
Ar 1.039917e+00 0.000000e+00 0.000000e+00
1
Step 631000
Ar 1.232550e+00 0.000000e+00 0.000000e+00
1
Step 632000
Ar 1.159701e+00 0.000000e+00 0.000000e+00
1
Step 633000
Ar 1.109355e+00 0.000000e+00 0.000000e+00
1
Step 634000
Ar 1.149605e+00 0.000000e+00 0.000000e+00
1
Step 635000
Ar 1.145129e+00 0.000000e+00 0.000000e+00
1
Step 636000
Ar 1.050046e+00 0.000000e+00 0.000000e+00
1
Step 637000
Ar 1.047873e+00 0.000000e+00 0.000000e+00
1
Step 638000
Ar 9.907018e-01 0.000000e+00 0.000000e+00
1
Step 639000
Ar 9.631285e-01 0.000000e+00 0.000000e+00
1
Step 640000
Ar 1.037775e+00 0.000000e+00 0.000000e+00
1
Step 641000
Ar 1.059385e+00 0.000000e+00 0.000000e+00
1
Step 642000
Ar 1.145663e+00 0.000000e+00 0.000000e+00
1
Step 643000
Ar 1.023574e+00 0.000000e+00 0.000000e+00
1
Step 644000
Ar 1.076758e+00 0.000000e+00 0.000000e+00
1
Step 645000
Ar 1.021721e+00 0.000000e+00 0.000000e+00
1
Step 646000
Ar 1.016875e+00 0.000000e+00 0.000000e+00
1
Step 647000
Ar 1.119440e+00 0.000000e+00 0.000000e+00
1
Step 648000
Ar 1.006847e+00 0.000000e+00 0.000000e+00
1
Step 649000
Ar 9.985460e-01 0.000000e+00 0.000000e+00
1
Step 650000
Ar 9.947404e-01 0.000000e+00 0.000000e+00
1
Step 651000
Ar 1.012342e+00 0.000000e+00 0.000000e+00
1
Step 652000
Ar 1.177687e+00 0.000000e+00 0.000000e+00
1
Step 653000
Ar 1.130409e+00 0.000000e+00 0.000000e+00
1
Step 654000
Ar 9.988822e-01 0.000000e+00 0.000000e+00
1
Step 655000
Ar 1.079574e+00 0.000000e+00 0.000000e+00
1
Step 656000
Ar 1.036432e+00 0.000000e+00 0.000000e+00
1
Step 657000
Ar 1.002461e+00 0.000000e+00 0.000000e+00
1
Step 658000
Ar 9.889153e-01 0.000000e+00 0.000000e+00
1
Step 659000
Ar 9.661739e-01 0.000000e+00 0.000000e+00
1
Step 660000
Ar 9.773482e-01 0.000000e+00 0.000000e+00
1
Step 661000
Ar 1.067180e+00 0.000000e+00 0.000000e+00
1
Step 662000
Ar 1.074946e+00 0.000000e+00 0.000000e+00
1
Step 663000
Ar 1.159101e+00 0.000000e+00 0.000000e+00
1
Step 664000
Ar 1.036114e+00 0.000000e+00 0.000000e+00
1
Step 665000
Ar 1.071869e+00 0.000000e+00 0.000000e+00
1
Step 666000
Ar 1.184945e+00 0.000000e+00 0.000000e+00
1
Step 667000
Ar 9.909125e-01 0.000000e+00 0.000000e+00
1
Step 668000
Ar 1.082661e+00 0.000000e+00 0.000000e+00
1
Step 669000
Ar 1.006656e+00 0.000000e+00 0.000000e+00
1
Step 670000
Ar 1.105455e+00 0.000000e+00 0.000000e+00
1
Step 671000
Ar 1.192687e+00 0.000000e+00 0.000000e+00
1
Step 672000
Ar 1.069325e+00 0.000000e+00 0.000000e+00
1
Step 673000
Ar 9.730122e-01 0.000000e+00 0.000000e+00
1
Step 674000
Ar 1.112873e+00 0.000000e+00 0.000000e+00
1
Step 675000
Ar 1.091542e+00 0.000000e+00 0.000000e+00
1
Step 676000
Ar 1.143056e+00 0.000000e+00 0.000000e+00
1
Step 677000
Ar 1.048238e+00 0.000000e+00 0.000000e+00
1
Step 678000
Ar 9.814023e-01 0.000000e+00 0.000000e+00
1
Step 679000
Ar 9.674024e-01 0.000000e+00 0.000000e+00
1
Step 680000
Ar 1.126927e+00 0.000000e+00 0.000000e+00
1
Step 681000
Ar 1.118052e+00 0.000000e+00 0.000000e+00
1
Step 682000
Ar 1.038275e+00 0.000000e+00 0.000000e+00
1
Step 683000
Ar 1.079007e+00 0.000000e+00 0.000000e+00
1
Step 684000
Ar 1.126339e+00 0.000000e+00 0.000000e+00
1
Step 685000
Ar 1.090831e+00 0.000000e+00 0.000000e+00
1
Step 686000
Ar 9.684661e-01 0.000000e+00 0.000000e+00
1
Step 687000
Ar 9.762324e-01 0.000000e+00 0.000000e+00
1
Step 688000
Ar 1.052741e+00 0.000000e+00 0.000000e+00
1
Step 689000
Ar 1.182683e+00 0.000000e+00 0.000000e+00
1
Step 690000
Ar 9.888413e-01 0.000000e+00 0.000000e+00
1
Step 691000
Ar 1.063249e+00 0.000000e+00 0.000000e+00
1
Step 692000
Ar 1.020302e+00 0.000000e+00 0.000000e+00
1
Step 693000
Ar 1.081513e+00 0.000000e+00 0.000000e+00
1
Step 694000
Ar 1.178401e+00 0.000000e+00 0.000000e+00
1
Step 695000
Ar 1.048528e+00 0.000000e+00 0.000000e+00
1
Step 696000
Ar 9.942249e-01 0.000000e+00 0.000000e+00
1
Step 697000
Ar 1.064708e+00 0.000000e+00 0.000000e+00
1
Step 698000
Ar 1.049712e+00 0.000000e+00 0.000000e+00
1
Step 699000
Ar 1.073898e+00 0.000000e+00 0.000000e+00
1
Step 700000
Ar 1.095580e+00 0.000000e+00 0.000000e+00
1
Step 701000
Ar 1.141500e+00 0.000000e+00 0.000000e+00
1
Step 702000
Ar 1.003005e+00 0.000000e+00 0.000000e+00
1
Step 703000
Ar 1.029452e+00 0.000000e+00 0.000000e+00
1
Step 704000
Ar 1.105461e+00 0.000000e+00 0.000000e+00
1
Step 705000
Ar 1.061846e+00 0.000000e+00 0.000000e+00
1
Step 706000
Ar 1.077369e+00 0.000000e+00 0.000000e+00
1
Step 707000
Ar 9.616765e-01 0.000000e+00 0.000000e+00
1
Step 708000
Ar 1.011038e+00 0.000000e+00 0.000000e+00
1
Step 709000
Ar 1.064798e+00 0.000000e+00 0.000000e+00
1
Step 710000
Ar 1.031946e+00 0.000000e+00 0.000000e+00
1
Step 711000
Ar 1.122055e+00 0.000000e+00 0.000000e+00
1
Step 712000
Ar 1.132919e+00 0.000000e+00 0.000000e+00
1
Step 713000
Ar 1.093409e+00 0.000000e+00 0.000000e+00
1
Step 714000
Ar 1.176593e+00 0.000000e+00 0.000000e+00
1
Step 715000
Ar 1.051452e+00 0.000000e+00 0.000000e+00
1
Step 716000
Ar 1.193826e+00 0.000000e+00 0.000000e+00
1
Step 717000
Ar 9.674708e-01 0.000000e+00 0.000000e+00
1
Step 718000
Ar 1.094094e+00 0.000000e+00 0.000000e+00
1
Step 719000
Ar 1.038647e+00 0.000000e+00 0.000000e+00
1
Step 720000
Ar 1.080799e+00 0.000000e+00 0.000000e+00
1
Step 721000
Ar 1.046523e+00 0.000000e+00 0.000000e+00
1
Step 722000
Ar 1.107662e+00 0.000000e+00 0.000000e+00
1
Step 723000
Ar 1.023277e+00 0.000000e+00 0.000000e+00
1
Step 724000
Ar 1.097267e+00 0.000000e+00 0.000000e+00
1
Step 725000
Ar 9.797778e-01 0.000000e+00 0.000000e+00
1
Step 726000
Ar 1.049416e+00 0.000000e+00 0.000000e+00
1
Step 727000
Ar 1.033946e+00 0.000000e+00 0.000000e+00
1
Step 728000
Ar 1.084792e+00 0.000000e+00 0.000000e+00
1
Step 729000
Ar 1.031937e+00 0.000000e+00 0.000000e+00
1
Step 730000
Ar 1.090812e+00 0.000000e+00 0.000000e+00
1
Step 731000
Ar 1.026596e+00 0.000000e+00 0.000000e+00
1
Step 732000
Ar 1.133955e+00 0.000000e+00 0.000000e+00
1
Step 733000
Ar 1.010415e+00 0.000000e+00 0.000000e+00
1
Step 734000
Ar 1.166649e+00 0.000000e+00 0.000000e+00
1
Step 735000
Ar 1.109045e+00 0.000000e+00 0.000000e+00
1
Step 736000
Ar 9.818227e-01 0.000000e+00 0.000000e+00
1
Step 737000
Ar 9.997334e-01 0.000000e+00 0.000000e+00
1
Step 738000
Ar 1.013854e+00 0.000000e+00 0.000000e+00
1
Step 739000
Ar 1.046890e+00 0.000000e+00 0.000000e+00
1
Step 740000
Ar 9.665815e-01 0.000000e+00 0.000000e+00
1
Step 741000
Ar 9.731544e-01 0.000000e+00 0.000000e+00
1
Step 742000
Ar 1.126343e+00 0.000000e+00 0.000000e+00
1
Step 743000
Ar 1.196916e+00 0.000000e+00 0.000000e+00
1
Step 744000
Ar 1.019555e+00 0.000000e+00 0.000000e+00
1
Step 745000
Ar 9.933578e-01 0.000000e+00 0.000000e+00
1
Step 746000
Ar 1.042718e+00 0.000000e+00 0.000000e+00
1
Step 747000
Ar 9.843136e-01 0.000000e+00 0.000000e+00
1
Step 748000
Ar 1.040745e+00 0.000000e+00 0.000000e+00
1
Step 749000
Ar 1.225063e+00 0.000000e+00 0.000000e+00
1
Step 750000
Ar 1.139014e+00 0.000000e+00 0.000000e+00
1
Step 751000
Ar 1.092459e+00 0.000000e+00 0.000000e+00
1
Step 752000
Ar 1.081008e+00 0.000000e+00 0.000000e+00
1
Step 753000
Ar 1.081884e+00 0.000000e+00 0.000000e+00
1
Step 754000
Ar 1.119736e+00 0.000000e+00 0.000000e+00
1
Step 755000
Ar 1.034136e+00 0.000000e+00 0.000000e+00
1
Step 756000
Ar 1.065681e+00 0.000000e+00 0.000000e+00
1
Step 757000
Ar 1.104145e+00 0.000000e+00 0.000000e+00
1
Step 758000
Ar 9.912251e-01 0.000000e+00 0.000000e+00
1
Step 759000
Ar 9.822015e-01 0.000000e+00 0.000000e+00
1
Step 760000
Ar 9.928512e-01 0.000000e+00 0.000000e+00
1
Step 761000
Ar 9.740794e-01 0.000000e+00 0.000000e+00
1
Step 762000
Ar 1.090238e+00 0.000000e+00 0.000000e+00
1
Step 763000
Ar 1.137497e+00 0.000000e+00 0.000000e+00
1
Step 764000
Ar 1.147162e+00 0.000000e+00 0.000000e+00
1
Step 765000
Ar 1.132336e+00 0.000000e+00 0.000000e+00
1
Step 766000
Ar 1.006637e+00 0.000000e+00 0.000000e+00
1
Step 767000
Ar 9.798917e-01 0.000000e+00 0.000000e+00
1
Step 768000
Ar 1.148447e+00 0.000000e+00 0.000000e+00
1
Step 769000
Ar 1.124730e+00 0.000000e+00 0.000000e+00
1
Step 770000
Ar 1.228493e+00 0.000000e+00 0.000000e+00
1
Step 771000
Ar 1.025652e+00 0.000000e+00 0.000000e+00
1
Step 772000
Ar 1.043330e+00 0.000000e+00 0.000000e+00
1
Step 773000
Ar 1.088956e+00 0.000000e+00 0.000000e+00
1
Step 774000
Ar 1.088864e+00 0.000000e+00 0.000000e+00
1
Step 775000
Ar 1.005263e+00 0.000000e+00 0.000000e+00
1
Step 776000
Ar 1.079413e+00 0.000000e+00 0.000000e+00
1
Step 777000
Ar 1.008438e+00 0.000000e+00 0.000000e+00
1
Step 778000
Ar 1.054915e+00 0.000000e+00 0.000000e+00
1
Step 779000
Ar 9.861084e-01 0.000000e+00 0.000000e+00
1
Step 780000
Ar 1.133873e+00 0.000000e+00 0.000000e+00
1
Step 781000
Ar 1.065892e+00 0.000000e+00 0.000000e+00
1
Step 782000
Ar 1.159711e+00 0.000000e+00 0.000000e+00
1
Step 783000
Ar 9.766183e-01 0.000000e+00 0.000000e+00
1
Step 784000
Ar 9.982800e-01 0.000000e+00 0.000000e+00
1
Step 785000
Ar 1.080967e+00 0.000000e+00 0.000000e+00
1
Step 786000
Ar 1.018744e+00 0.000000e+00 0.000000e+00
1
Step 787000
Ar 1.063477e+00 0.000000e+00 0.000000e+00
1
Step 788000
Ar 1.145339e+00 0.000000e+00 0.000000e+00
1
Step 789000
Ar 1.002983e+00 0.000000e+00 0.000000e+00
1
Step 790000
Ar 1.031064e+00 0.000000e+00 0.000000e+00
1
Step 791000
Ar 1.033527e+00 0.000000e+00 0.000000e+00
1
Step 792000
Ar 1.123949e+00 0.000000e+00 0.000000e+00
1
Step 793000
Ar 9.785804e-01 0.000000e+00 0.000000e+00
1
Step 794000
Ar 1.085427e+00 0.000000e+00 0.000000e+00
1
Step 795000
Ar 1.089855e+00 0.000000e+00 0.000000e+00
1
Step 796000
Ar 9.992757e-01 0.000000e+00 0.000000e+00
1
Step 797000
Ar 1.196065e+00 0.000000e+00 0.000000e+00
1
Step 798000
Ar 9.791246e-01 0.000000e+00 0.000000e+00
1
Step 799000
Ar 9.913242e-01 0.000000e+00 0.000000e+00
1
Step 800000
Ar 9.980279e-01 0.000000e+00 0.000000e+00
1
Step 801000
Ar 1.163598e+00 0.000000e+00 0.000000e+00
1
Step 802000
Ar 1.164361e+00 0.000000e+00 0.000000e+00
1
Step 803000
Ar 1.108925e+00 0.000000e+00 0.000000e+00
1
Step 804000
Ar 1.002801e+00 0.000000e+00 0.000000e+00
1
Step 805000
Ar 9.746376e-01 0.000000e+00 0.000000e+00
1
Step 806000
Ar 1.222375e+00 0.000000e+00 0.000000e+00
1
Step 807000
Ar 1.003130e+00 0.000000e+00 0.000000e+00
1
Step 808000
Ar 9.795989e-01 0.000000e+00 0.000000e+00
1
Step 809000
Ar 1.173118e+00 0.000000e+00 0.000000e+00
1
Step 810000
Ar 1.192355e+00 0.000000e+00 0.000000e+00
1
Step 811000
Ar 1.046431e+00 0.000000e+00 0.000000e+00
1
Step 812000
Ar 1.012646e+00 0.000000e+00 0.000000e+00
1
Step 813000
Ar 1.136608e+00 0.000000e+00 0.000000e+00
1
Step 814000
Ar 1.042798e+00 0.000000e+00 0.000000e+00
1
Step 815000
Ar 9.982942e-01 0.000000e+00 0.000000e+00
1
Step 816000
Ar 9.946363e-01 0.000000e+00 0.000000e+00
1
Step 817000
Ar 1.031333e+00 0.000000e+00 0.000000e+00
1
Step 818000
Ar 1.001802e+00 0.000000e+00 0.000000e+00
1
Step 819000
Ar 1.030901e+00 0.000000e+00 0.000000e+00
1
Step 820000
Ar 1.080335e+00 0.000000e+00 0.000000e+00
1
Step 821000
Ar 1.086258e+00 0.000000e+00 0.000000e+00
1
Step 822000
Ar 1.007716e+00 0.000000e+00 0.000000e+00
1
Step 823000
Ar 1.027546e+00 0.000000e+00 0.000000e+00
1
Step 824000
Ar 1.010908e+00 0.000000e+00 0.000000e+00
1
Step 825000
Ar 1.145096e+00 0.000000e+00 0.000000e+00
1
Step 826000
Ar 1.025443e+00 0.000000e+00 0.000000e+00
1
Step 827000
Ar 1.049579e+00 0.000000e+00 0.000000e+00
1
Step 828000
Ar 1.014748e+00 0.000000e+00 0.000000e+00
1
Step 829000
Ar 1.093694e+00 0.000000e+00 0.000000e+00
1
Step 830000
Ar 1.016884e+00 0.000000e+00 0.000000e+00
1
Step 831000
Ar 1.127219e+00 0.000000e+00 0.000000e+00
1
Step 832000
Ar 1.044807e+00 0.000000e+00 0.000000e+00
1
Step 833000
Ar 1.093326e+00 0.000000e+00 0.000000e+00
1
Step 834000
Ar 9.701095e-01 0.000000e+00 0.000000e+00
1
Step 835000
Ar 9.847809e-01 0.000000e+00 0.000000e+00
1
Step 836000
Ar 1.132651e+00 0.000000e+00 0.000000e+00
1
Step 837000
Ar 1.074612e+00 0.000000e+00 0.000000e+00
1
Step 838000
Ar 1.046028e+00 0.000000e+00 0.000000e+00
1
Step 839000
Ar 1.036215e+00 0.000000e+00 0.000000e+00
1
Step 840000
Ar 9.995933e-01 0.000000e+00 0.000000e+00
1
Step 841000
Ar 9.680481e-01 0.000000e+00 0.000000e+00
1
Step 842000
Ar 1.113763e+00 0.000000e+00 0.000000e+00
1
Step 843000
Ar 1.022190e+00 0.000000e+00 0.000000e+00
1
Step 844000
Ar 1.184175e+00 0.000000e+00 0.000000e+00
1
Step 845000
Ar 1.094189e+00 0.000000e+00 0.000000e+00
1
Step 846000
Ar 1.028903e+00 0.000000e+00 0.000000e+00
1
Step 847000
Ar 1.113121e+00 0.000000e+00 0.000000e+00
1
Step 848000
Ar 1.027937e+00 0.000000e+00 0.000000e+00
1
Step 849000
Ar 1.001991e+00 0.000000e+00 0.000000e+00
1
Step 850000
Ar 1.133711e+00 0.000000e+00 0.000000e+00
1
Step 851000
Ar 1.011153e+00 0.000000e+00 0.000000e+00
1
Step 852000
Ar 1.192833e+00 0.000000e+00 0.000000e+00
1
Step 853000
Ar 1.087054e+00 0.000000e+00 0.000000e+00
1
Step 854000
Ar 1.049718e+00 0.000000e+00 0.000000e+00
1
Step 855000
Ar 1.026528e+00 0.000000e+00 0.000000e+00
1
Step 856000
Ar 1.107594e+00 0.000000e+00 0.000000e+00
1
Step 857000
Ar 1.138590e+00 0.000000e+00 0.000000e+00
1
Step 858000
Ar 1.189854e+00 0.000000e+00 0.000000e+00
1
Step 859000
Ar 1.086996e+00 0.000000e+00 0.000000e+00
1
Step 860000
Ar 1.059936e+00 0.000000e+00 0.000000e+00
1
Step 861000
Ar 1.093673e+00 0.000000e+00 0.000000e+00
1
Step 862000
Ar 1.026888e+00 0.000000e+00 0.000000e+00
1
Step 863000
Ar 1.147623e+00 0.000000e+00 0.000000e+00
1
Step 864000
Ar 1.113544e+00 0.000000e+00 0.000000e+00
1
Step 865000
Ar 1.041471e+00 0.000000e+00 0.000000e+00
1
Step 866000
Ar 1.223758e+00 0.000000e+00 0.000000e+00
1
Step 867000
Ar 1.017415e+00 0.000000e+00 0.000000e+00
1
Step 868000
Ar 1.015103e+00 0.000000e+00 0.000000e+00
1
Step 869000
Ar 1.007897e+00 0.000000e+00 0.000000e+00
1
Step 870000
Ar 1.152254e+00 0.000000e+00 0.000000e+00
1
Step 871000
Ar 1.090145e+00 0.000000e+00 0.000000e+00
1
Step 872000
Ar 1.033476e+00 0.000000e+00 0.000000e+00
1
Step 873000
Ar 1.115267e+00 0.000000e+00 0.000000e+00
1
Step 874000
Ar 1.112777e+00 0.000000e+00 0.000000e+00
1
Step 875000
Ar 1.113253e+00 0.000000e+00 0.000000e+00
1
Step 876000
Ar 1.007623e+00 0.000000e+00 0.000000e+00
1
Step 877000
Ar 1.020196e+00 0.000000e+00 0.000000e+00
1
Step 878000
Ar 9.792731e-01 0.000000e+00 0.000000e+00
1
Step 879000
Ar 1.059273e+00 0.000000e+00 0.000000e+00
1
Step 880000
Ar 1.112272e+00 0.000000e+00 0.000000e+00
1
Step 881000
Ar 1.090463e+00 0.000000e+00 0.000000e+00
1
Step 882000
Ar 9.881606e-01 0.000000e+00 0.000000e+00
1
Step 883000
Ar 9.876124e-01 0.000000e+00 0.000000e+00
1
Step 884000
Ar 1.052518e+00 0.000000e+00 0.000000e+00
1
Step 885000
Ar 9.828142e-01 0.000000e+00 0.000000e+00
1
Step 886000
Ar 9.715981e-01 0.000000e+00 0.000000e+00
1
Step 887000
Ar 1.038709e+00 0.000000e+00 0.000000e+00
1
Step 888000
Ar 1.066041e+00 0.000000e+00 0.000000e+00
1
Step 889000
Ar 9.870755e-01 0.000000e+00 0.000000e+00
1
Step 890000
Ar 9.712150e-01 0.000000e+00 0.000000e+00
1
Step 891000
Ar 9.745755e-01 0.000000e+00 0.000000e+00
1
Step 892000
Ar 1.154316e+00 0.000000e+00 0.000000e+00
1
Step 893000
Ar 1.038746e+00 0.000000e+00 0.000000e+00
1
Step 894000
Ar 1.014969e+00 0.000000e+00 0.000000e+00
1
Step 895000
Ar 1.106374e+00 0.000000e+00 0.000000e+00
1
Step 896000
Ar 1.102032e+00 0.000000e+00 0.000000e+00
1
Step 897000
Ar 1.071477e+00 0.000000e+00 0.000000e+00
1
Step 898000
Ar 1.040521e+00 0.000000e+00 0.000000e+00
1
Step 899000
Ar 9.820288e-01 0.000000e+00 0.000000e+00
1
Step 900000
Ar 1.030684e+00 0.000000e+00 0.000000e+00
1
Step 901000
Ar 1.004513e+00 0.000000e+00 0.000000e+00
1
Step 902000
Ar 1.006577e+00 0.000000e+00 0.000000e+00
1
Step 903000
Ar 1.026225e+00 0.000000e+00 0.000000e+00
1
Step 904000
Ar 1.009009e+00 0.000000e+00 0.000000e+00
1
Step 905000
Ar 1.186266e+00 0.000000e+00 0.000000e+00
1
Step 906000
Ar 9.910500e-01 0.000000e+00 0.000000e+00
1
Step 907000
Ar 9.793710e-01 0.000000e+00 0.000000e+00
1
Step 908000
Ar 1.090940e+00 0.000000e+00 0.000000e+00
1
Step 909000
Ar 1.150003e+00 0.000000e+00 0.000000e+00
1
Step 910000
Ar 9.980973e-01 0.000000e+00 0.000000e+00
1
Step 911000
Ar 1.042303e+00 0.000000e+00 0.000000e+00
1
Step 912000
Ar 9.776526e-01 0.000000e+00 0.000000e+00
1
Step 913000
Ar 1.196062e+00 0.000000e+00 0.000000e+00
1
Step 914000
Ar 1.087292e+00 0.000000e+00 0.000000e+00
1
Step 915000
Ar 1.143691e+00 0.000000e+00 0.000000e+00
1
Step 916000
Ar 1.026217e+00 0.000000e+00 0.000000e+00
1
Step 917000
Ar 1.044943e+00 0.000000e+00 0.000000e+00
1
Step 918000
Ar 1.023529e+00 0.000000e+00 0.000000e+00
1
Step 919000
Ar 1.056737e+00 0.000000e+00 0.000000e+00
1
Step 920000
Ar 1.033209e+00 0.000000e+00 0.000000e+00
1
Step 921000
Ar 1.078453e+00 0.000000e+00 0.000000e+00
1
Step 922000
Ar 9.798368e-01 0.000000e+00 0.000000e+00
1
Step 923000
Ar 9.980118e-01 0.000000e+00 0.000000e+00
1
Step 924000
Ar 1.107298e+00 0.000000e+00 0.000000e+00
1
Step 925000
Ar 1.181665e+00 0.000000e+00 0.000000e+00
1
Step 926000
Ar 1.048136e+00 0.000000e+00 0.000000e+00
1
Step 927000
Ar 1.077182e+00 0.000000e+00 0.000000e+00
1
Step 928000
Ar 1.148168e+00 0.000000e+00 0.000000e+00
1
Step 929000
Ar 1.065263e+00 0.000000e+00 0.000000e+00
1
Step 930000
Ar 1.053963e+00 0.000000e+00 0.000000e+00
1
Step 931000
Ar 1.054348e+00 0.000000e+00 0.000000e+00
1
Step 932000
Ar 1.066574e+00 0.000000e+00 0.000000e+00
1
Step 933000
Ar 1.166201e+00 0.000000e+00 0.000000e+00
1
Step 934000
Ar 1.068614e+00 0.000000e+00 0.000000e+00
1
Step 935000
Ar 1.159966e+00 0.000000e+00 0.000000e+00
1
Step 936000
Ar 1.065050e+00 0.000000e+00 0.000000e+00
1
Step 937000
Ar 1.057724e+00 0.000000e+00 0.000000e+00
1
Step 938000
Ar 1.039643e+00 0.000000e+00 0.000000e+00
1
Step 939000
Ar 9.999501e-01 0.000000e+00 0.000000e+00
1
Step 940000
Ar 1.081198e+00 0.000000e+00 0.000000e+00
1
Step 941000
Ar 9.660790e-01 0.000000e+00 0.000000e+00
1
Step 942000
Ar 9.875843e-01 0.000000e+00 0.000000e+00
1
Step 943000
Ar 9.868348e-01 0.000000e+00 0.000000e+00
1
Step 944000
Ar 1.052664e+00 0.000000e+00 0.000000e+00
1
Step 945000
Ar 1.037176e+00 0.000000e+00 0.000000e+00
1
Step 946000
Ar 1.028100e+00 0.000000e+00 0.000000e+00
1
Step 947000
Ar 9.883521e-01 0.000000e+00 0.000000e+00
1
Step 948000
Ar 1.076442e+00 0.000000e+00 0.000000e+00
1
Step 949000
Ar 1.010292e+00 0.000000e+00 0.000000e+00
1
Step 950000
Ar 9.867548e-01 0.000000e+00 0.000000e+00
1
Step 951000
Ar 1.206592e+00 0.000000e+00 0.000000e+00
1
Step 952000
Ar 1.091032e+00 0.000000e+00 0.000000e+00
1
Step 953000
Ar 9.734982e-01 0.000000e+00 0.000000e+00
1
Step 954000
Ar 9.846893e-01 0.000000e+00 0.000000e+00
1
Step 955000
Ar 1.094279e+00 0.000000e+00 0.000000e+00
1
Step 956000
Ar 1.017965e+00 0.000000e+00 0.000000e+00
1
Step 957000
Ar 1.108975e+00 0.000000e+00 0.000000e+00
1
Step 958000
Ar 1.010308e+00 0.000000e+00 0.000000e+00
1
Step 959000
Ar 1.073877e+00 0.000000e+00 0.000000e+00
1
Step 960000
Ar 1.031633e+00 0.000000e+00 0.000000e+00
1
Step 961000
Ar 1.013121e+00 0.000000e+00 0.000000e+00
1
Step 962000
Ar 1.002557e+00 0.000000e+00 0.000000e+00
1
Step 963000
Ar 9.759398e-01 0.000000e+00 0.000000e+00
1
Step 964000
Ar 1.048299e+00 0.000000e+00 0.000000e+00
1
Step 965000
Ar 9.773806e-01 0.000000e+00 0.000000e+00
1
Step 966000
Ar 1.202388e+00 0.000000e+00 0.000000e+00
1
Step 967000
Ar 1.117942e+00 0.000000e+00 0.000000e+00
1
Step 968000
Ar 9.796672e-01 0.000000e+00 0.000000e+00
1
Step 969000
Ar 1.182372e+00 0.000000e+00 0.000000e+00
1
Step 970000
Ar 1.003402e+00 0.000000e+00 0.000000e+00
1
Step 971000
Ar 1.118313e+00 0.000000e+00 0.000000e+00
1
Step 972000
Ar 1.148635e+00 0.000000e+00 0.000000e+00
1
Step 973000
Ar 1.230123e+00 0.000000e+00 0.000000e+00
1
Step 974000
Ar 1.088769e+00 0.000000e+00 0.000000e+00
1
Step 975000
Ar 1.034439e+00 0.000000e+00 0.000000e+00
1
Step 976000
Ar 1.198952e+00 0.000000e+00 0.000000e+00
1
Step 977000
Ar 9.694772e-01 0.000000e+00 0.000000e+00
1
Step 978000
Ar 1.086470e+00 0.000000e+00 0.000000e+00
1
Step 979000
Ar 1.064691e+00 0.000000e+00 0.000000e+00
1
Step 980000
Ar 1.028976e+00 0.000000e+00 0.000000e+00
1
Step 981000
Ar 9.755987e-01 0.000000e+00 0.000000e+00
1
Step 982000
Ar 1.017606e+00 0.000000e+00 0.000000e+00
1
Step 983000
Ar 1.121624e+00 0.000000e+00 0.000000e+00
1
Step 984000
Ar 1.146392e+00 0.000000e+00 0.000000e+00
1
Step 985000
Ar 1.001087e+00 0.000000e+00 0.000000e+00
1
Step 986000
Ar 1.161598e+00 0.000000e+00 0.000000e+00
1
Step 987000
Ar 1.166665e+00 0.000000e+00 0.000000e+00
1
Step 988000
Ar 1.095037e+00 0.000000e+00 0.000000e+00
1
Step 989000
Ar 1.156424e+00 0.000000e+00 0.000000e+00
1
Step 990000
Ar 1.196171e+00 0.000000e+00 0.000000e+00
1
Step 991000
Ar 1.083459e+00 0.000000e+00 0.000000e+00
1
Step 992000
Ar 9.748985e-01 0.000000e+00 0.000000e+00
1
Step 993000
Ar 1.003469e+00 0.000000e+00 0.000000e+00
1
Step 994000
Ar 1.195003e+00 0.000000e+00 0.000000e+00
1
Step 995000
Ar 1.086005e+00 0.000000e+00 0.000000e+00
1
Step 996000
Ar 9.889297e-01 0.000000e+00 0.000000e+00
1
Step 997000
Ar 1.179412e+00 0.000000e+00 0.000000e+00
1
Step 998000
Ar 1.085876e+00 0.000000e+00 0.000000e+00
1
Step 999000
Ar 1.135041e+00 0.000000e+00 0.000000e+00
