1
Step 120000
Ar 9.034104e-01 0.000000e+00 0.000000e+00
1
Step 121000
Ar 1.041300e+00 0.000000e+00 0.000000e+00
1
Step 122000
Ar 8.830352e-01 0.000000e+00 0.000000e+00
1
Step 123000
Ar 8.020621e-01 0.000000e+00 0.000000e+00
1
Step 124000
Ar 9.136221e-01 0.000000e+00 0.000000e+00
1
Step 125000
Ar 1.076723e+00 0.000000e+00 0.000000e+00
1
Step 126000
Ar 9.402957e-01 0.000000e+00 0.000000e+00
1
Step 127000
Ar 9.440526e-01 0.000000e+00 0.000000e+00
1
Step 128000
Ar 9.439680e-01 0.000000e+00 0.000000e+00
1
Step 129000
Ar 1.164399e+00 0.000000e+00 0.000000e+00
1
Step 130000
Ar 8.318060e-01 0.000000e+00 0.000000e+00
1
Step 131000
Ar 8.513780e-01 0.000000e+00 0.000000e+00
1
Step 132000
Ar 8.747621e-01 0.000000e+00 0.000000e+00
1
Step 133000
Ar 1.020330e+00 0.000000e+00 0.000000e+00
1
Step 134000
Ar 9.633300e-01 0.000000e+00 0.000000e+00
1
Step 135000
Ar 1.044398e+00 0.000000e+00 0.000000e+00
1
Step 136000
Ar 1.000465e+00 0.000000e+00 0.000000e+00
1
Step 137000
Ar 8.897734e-01 0.000000e+00 0.000000e+00
1
Step 138000
Ar 7.557462e-01 0.000000e+00 0.000000e+00
1
Step 139000
Ar 8.707700e-01 0.000000e+00 0.000000e+00
1
Step 140000
Ar 6.246978e-01 0.000000e+00 0.000000e+00
1
Step 141000
Ar 1.150022e+00 0.000000e+00 0.000000e+00
1
Step 142000
Ar 1.028344e+00 0.000000e+00 0.000000e+00
1
Step 143000
Ar 9.745574e-01 0.000000e+00 0.000000e+00
1
Step 144000
Ar 1.045061e+00 0.000000e+00 0.000000e+00
1
Step 145000
Ar 1.013912e+00 0.000000e+00 0.000000e+00
1
Step 146000
Ar 9.453254e-01 0.000000e+00 0.000000e+00
1
Step 147000
Ar 8.176687e-01 0.000000e+00 0.000000e+00
1
Step 148000
Ar 9.075848e-01 0.000000e+00 0.000000e+00
1
Step 149000
Ar 1.009501e+00 0.000000e+00 0.000000e+00
1
Step 150000
Ar 8.678127e-01 0.000000e+00 0.000000e+00
1
Step 151000
Ar 9.049264e-01 0.000000e+00 0.000000e+00
1
Step 152000
Ar 1.076664e+00 0.000000e+00 0.000000e+00
1
Step 153000
Ar 9.637254e-01 0.000000e+00 0.000000e+00
1
Step 154000
Ar 1.048912e+00 0.000000e+00 0.000000e+00
1
Step 155000
Ar 9.556378e-01 0.000000e+00 0.000000e+00
1
Step 156000
Ar 1.160793e+00 0.000000e+00 0.000000e+00
1
Step 157000
Ar 9.923002e-01 0.000000e+00 0.000000e+00
1
Step 158000
Ar 1.196543e+00 0.000000e+00 0.000000e+00
1
Step 159000
Ar 9.225209e-01 0.000000e+00 0.000000e+00
1
Step 160000
Ar 1.081125e+00 0.000000e+00 0.000000e+00
1
Step 161000
Ar 9.663550e-01 0.000000e+00 0.000000e+00
1
Step 162000
Ar 1.024096e+00 0.000000e+00 0.000000e+00
1
Step 163000
Ar 1.109764e+00 0.000000e+00 0.000000e+00
1
Step 164000
Ar 1.061582e+00 0.000000e+00 0.000000e+00
1
Step 165000
Ar 8.829307e-01 0.000000e+00 0.000000e+00
1
Step 166000
Ar 9.445405e-01 0.000000e+00 0.000000e+00
1
Step 167000
Ar 9.584561e-01 0.000000e+00 0.000000e+00
1
Step 168000
Ar 8.702101e-01 0.000000e+00 0.000000e+00
1
Step 169000
Ar 9.861166e-01 0.000000e+00 0.000000e+00
1
Step 170000
Ar 7.977733e-01 0.000000e+00 0.000000e+00
1
Step 171000
Ar 9.342426e-01 0.000000e+00 0.000000e+00
1
Step 172000
Ar 9.885707e-01 0.000000e+00 0.000000e+00
1
Step 173000
Ar 8.905693e-01 0.000000e+00 0.000000e+00
1
Step 174000
Ar 1.009036e+00 0.000000e+00 0.000000e+00
1
Step 175000
Ar 6.923108e-01 0.000000e+00 0.000000e+00
1
Step 176000
Ar 1.031037e+00 0.000000e+00 0.000000e+00
1
Step 177000
Ar 9.910451e-01 0.000000e+00 0.000000e+00
1
Step 178000
Ar 1.149892e+00 0.000000e+00 0.000000e+00
1
Step 179000
Ar 9.259619e-01 0.000000e+00 0.000000e+00
1
Step 180000
Ar 1.171543e+00 0.000000e+00 0.000000e+00
1
Step 181000
Ar 1.124350e+00 0.000000e+00 0.000000e+00
1
Step 182000
Ar 9.787374e-01 0.000000e+00 0.000000e+00
1
Step 183000
Ar 9.570659e-01 0.000000e+00 0.000000e+00
1
Step 184000
Ar 9.839389e-01 0.000000e+00 0.000000e+00
1
Step 185000
Ar 9.011462e-01 0.000000e+00 0.000000e+00
1
Step 186000
Ar 9.581469e-01 0.000000e+00 0.000000e+00
1
Step 187000
Ar 9.079727e-01 0.000000e+00 0.000000e+00
1
Step 188000
Ar 7.258336e-01 0.000000e+00 0.000000e+00
1
Step 189000
Ar 1.152925e+00 0.000000e+00 0.000000e+00
1
Step 190000
Ar 1.033769e+00 0.000000e+00 0.000000e+00
1
Step 191000
Ar 1.086758e+00 0.000000e+00 0.000000e+00
1
Step 192000
Ar 1.063063e+00 0.000000e+00 0.000000e+00
1
Step 193000
Ar 1.103387e+00 0.000000e+00 0.000000e+00
1
Step 194000
Ar 8.299952e-01 0.000000e+00 0.000000e+00
1
Step 195000
Ar 9.035864e-01 0.000000e+00 0.000000e+00
1
Step 196000
Ar 9.883096e-01 0.000000e+00 0.000000e+00
1
Step 197000
Ar 1.048865e+00 0.000000e+00 0.000000e+00
1
Step 198000
Ar 9.771603e-01 0.000000e+00 0.000000e+00
1
Step 199000
Ar 1.005253e+00 0.000000e+00 0.000000e+00
1
Step 200000
Ar 1.011917e+00 0.000000e+00 0.000000e+00
1
Step 201000
Ar 8.317236e-01 0.000000e+00 0.000000e+00
1
Step 202000
Ar 9.099716e-01 0.000000e+00 0.000000e+00
1
Step 203000
Ar 9.913099e-01 0.000000e+00 0.000000e+00
1
Step 204000
Ar 1.014543e+00 0.000000e+00 0.000000e+00
1
Step 205000
Ar 1.101097e+00 0.000000e+00 0.000000e+00
1
Step 206000
Ar 9.433248e-01 0.000000e+00 0.000000e+00
1
Step 207000
Ar 8.880606e-01 0.000000e+00 0.000000e+00
1
Step 208000
Ar 1.014225e+00 0.000000e+00 0.000000e+00
1
Step 209000
Ar 8.901670e-01 0.000000e+00 0.000000e+00
1
Step 210000
Ar 9.737338e-01 0.000000e+00 0.000000e+00
1
Step 211000
Ar 9.906205e-01 0.000000e+00 0.000000e+00
1
Step 212000
Ar 9.691572e-01 0.000000e+00 0.000000e+00
1
Step 213000
Ar 8.413354e-01 0.000000e+00 0.000000e+00
1
Step 214000
Ar 1.018821e+00 0.000000e+00 0.000000e+00
1
Step 215000
Ar 1.107362e+00 0.000000e+00 0.000000e+00
1
Step 216000
Ar 1.046244e+00 0.000000e+00 0.000000e+00
1
Step 217000
Ar 9.109987e-01 0.000000e+00 0.000000e+00
1
Step 218000
Ar 1.120431e+00 0.000000e+00 0.000000e+00
1
Step 219000
Ar 9.868974e-01 0.000000e+00 0.000000e+00
1
Step 220000
Ar 9.887494e-01 0.000000e+00 0.000000e+00
1
Step 221000
Ar 1.122392e+00 0.000000e+00 0.000000e+00
1
Step 222000
Ar 9.859701e-01 0.000000e+00 0.000000e+00
1
Step 223000
Ar 8.714449e-01 0.000000e+00 0.000000e+00
1
Step 224000
Ar 7.648804e-01 0.000000e+00 0.000000e+00
1
Step 225000
Ar 9.287094e-01 0.000000e+00 0.000000e+00
1
Step 226000
Ar 1.078955e+00 0.000000e+00 0.000000e+00
1
Step 227000
Ar 1.033557e+00 0.000000e+00 0.000000e+00
1
Step 228000
Ar 1.141823e+00 0.000000e+00 0.000000e+00
1
Step 229000
Ar 1.081360e+00 0.000000e+00 0.000000e+00
1
Step 230000
Ar 9.466935e-01 0.000000e+00 0.000000e+00
1
Step 231000
Ar 1.090878e+00 0.000000e+00 0.000000e+00
1
Step 232000
Ar 9.925410e-01 0.000000e+00 0.000000e+00
1
Step 233000
Ar 9.456818e-01 0.000000e+00 0.000000e+00
1
Step 234000
Ar 9.116939e-01 0.000000e+00 0.000000e+00
1
Step 235000
Ar 8.692723e-01 0.000000e+00 0.000000e+00
1
Step 236000
Ar 1.010706e+00 0.000000e+00 0.000000e+00
1
Step 237000
Ar 1.078725e+00 0.000000e+00 0.000000e+00
1
Step 238000
Ar 1.032769e+00 0.000000e+00 0.000000e+00
1
Step 239000
Ar 1.135240e+00 0.000000e+00 0.000000e+00
1
Step 240000
Ar 8.959195e-01 0.000000e+00 0.000000e+00
1
Step 241000
Ar 7.477916e-01 0.000000e+00 0.000000e+00
1
Step 242000
Ar 9.608987e-01 0.000000e+00 0.000000e+00
1
Step 243000
Ar 1.061246e+00 0.000000e+00 0.000000e+00
1
Step 244000
Ar 8.111602e-01 0.000000e+00 0.000000e+00
1
Step 245000
Ar 1.198119e+00 0.000000e+00 0.000000e+00
1
Step 246000
Ar 1.044305e+00 0.000000e+00 0.000000e+00
1
Step 247000
Ar 1.138498e+00 0.000000e+00 0.000000e+00
1
Step 248000
Ar 9.149883e-01 0.000000e+00 0.000000e+00
1
Step 249000
Ar 8.377424e-01 0.000000e+00 0.000000e+00
1
Step 250000
Ar 1.085911e+00 0.000000e+00 0.000000e+00
1
Step 251000
Ar 1.112534e+00 0.000000e+00 0.000000e+00
1
Step 252000
Ar 1.160218e+00 0.000000e+00 0.000000e+00
1
Step 253000
Ar 8.978818e-01 0.000000e+00 0.000000e+00
1
Step 254000
Ar 8.130479e-01 0.000000e+00 0.000000e+00
1
Step 255000
Ar 1.048296e+00 0.000000e+00 0.000000e+00
1
Step 256000
Ar 8.409695e-01 0.000000e+00 0.000000e+00
1
Step 257000
Ar 8.486741e-01 0.000000e+00 0.000000e+00
1
Step 258000
Ar 8.684529e-01 0.000000e+00 0.000000e+00
1
Step 259000
Ar 1.122145e+00 0.000000e+00 0.000000e+00
1
Step 260000
Ar 9.624927e-01 0.000000e+00 0.000000e+00
1
Step 261000
Ar 8.029878e-01 0.000000e+00 0.000000e+00
1
Step 262000
Ar 9.214842e-01 0.000000e+00 0.000000e+00
1
Step 263000
Ar 9.651896e-01 0.000000e+00 0.000000e+00
1
Step 264000
Ar 9.743247e-01 0.000000e+00 0.000000e+00
1
Step 265000
Ar 1.171419e+00 0.000000e+00 0.000000e+00
1
Step 266000
Ar 9.378662e-01 0.000000e+00 0.000000e+00
1
Step 267000
Ar 7.963224e-01 0.000000e+00 0.000000e+00
1
Step 268000
Ar 1.084497e+00 0.000000e+00 0.000000e+00
1
Step 269000
Ar 1.125638e+00 0.000000e+00 0.000000e+00
1
Step 270000
Ar 1.003157e+00 0.000000e+00 0.000000e+00
1
Step 271000
Ar 8.861308e-01 0.000000e+00 0.000000e+00
1
Step 272000
Ar 7.718668e-01 0.000000e+00 0.000000e+00
1
Step 273000
Ar 9.478869e-01 0.000000e+00 0.000000e+00
1
Step 274000
Ar 1.146593e+00 0.000000e+00 0.000000e+00
1
Step 275000
Ar 1.103914e+00 0.000000e+00 0.000000e+00
1
Step 276000
Ar 1.033081e+00 0.000000e+00 0.000000e+00
1
Step 277000
Ar 1.104033e+00 0.000000e+00 0.000000e+00
1
Step 278000
Ar 8.612964e-01 0.000000e+00 0.000000e+00
1
Step 279000
Ar 7.985180e-01 0.000000e+00 0.000000e+00
1
Step 280000
Ar 9.763437e-01 0.000000e+00 0.000000e+00
1
Step 281000
Ar 1.112057e+00 0.000000e+00 0.000000e+00
1
Step 282000
Ar 8.702619e-01 0.000000e+00 0.000000e+00
1
Step 283000
Ar 1.062258e+00 0.000000e+00 0.000000e+00
1
Step 284000
Ar 9.021563e-01 0.000000e+00 0.000000e+00
1
Step 285000
Ar 9.101397e-01 0.000000e+00 0.000000e+00
1
Step 286000
Ar 1.104749e+00 0.000000e+00 0.000000e+00
1
Step 287000
Ar 1.009525e+00 0.000000e+00 0.000000e+00
1
Step 288000
Ar 1.029042e+00 0.000000e+00 0.000000e+00
1
Step 289000
Ar 1.060435e+00 0.000000e+00 0.000000e+00
1
Step 290000
Ar 1.035506e+00 0.000000e+00 0.000000e+00
1
Step 291000
Ar 8.068461e-01 0.000000e+00 0.000000e+00
1
Step 292000
Ar 8.448154e-01 0.000000e+00 0.000000e+00
1
Step 293000
Ar 1.079925e+00 0.000000e+00 0.000000e+00
1
Step 294000
Ar 1.030486e+00 0.000000e+00 0.000000e+00
1
Step 295000
Ar 9.723561e-01 0.000000e+00 0.000000e+00
1
Step 296000
Ar 1.191930e+00 0.000000e+00 0.000000e+00
1
Step 297000
Ar 9.564088e-01 0.000000e+00 0.000000e+00
1
Step 298000
Ar 9.993222e-01 0.000000e+00 0.000000e+00
1
Step 299000
Ar 9.832228e-01 0.000000e+00 0.000000e+00
1
Step 300000
Ar 9.705945e-01 0.000000e+00 0.000000e+00
1
Step 301000
Ar 8.652506e-01 0.000000e+00 0.000000e+00
1
Step 302000
Ar 9.274434e-01 0.000000e+00 0.000000e+00
1
Step 303000
Ar 9.665050e-01 0.000000e+00 0.000000e+00
1
Step 304000
Ar 9.708380e-01 0.000000e+00 0.000000e+00
1
Step 305000
Ar 8.201609e-01 0.000000e+00 0.000000e+00
1
Step 306000
Ar 1.133135e+00 0.000000e+00 0.000000e+00
1
Step 307000
Ar 9.387525e-01 0.000000e+00 0.000000e+00
1
Step 308000
Ar 9.700932e-01 0.000000e+00 0.000000e+00
1
Step 309000
Ar 1.059106e+00 0.000000e+00 0.000000e+00
1
Step 310000
Ar 9.051863e-01 0.000000e+00 0.000000e+00
1
Step 311000
Ar 1.095688e+00 0.000000e+00 0.000000e+00
1
Step 312000
Ar 1.017696e+00 0.000000e+00 0.000000e+00
1
Step 313000
Ar 8.158915e-01 0.000000e+00 0.000000e+00
1
Step 314000
Ar 1.031000e+00 0.000000e+00 0.000000e+00
1
Step 315000
Ar 9.343189e-01 0.000000e+00 0.000000e+00
1
Step 316000
Ar 8.859020e-01 0.000000e+00 0.000000e+00
1
Step 317000
Ar 7.814068e-01 0.000000e+00 0.000000e+00
1
Step 318000
Ar 1.160939e+00 0.000000e+00 0.000000e+00
1
Step 319000
Ar 1.095445e+00 0.000000e+00 0.000000e+00
1
Step 320000
Ar 9.784779e-01 0.000000e+00 0.000000e+00
1
Step 321000
Ar 8.097733e-01 0.000000e+00 0.000000e+00
1
Step 322000
Ar 9.218606e-01 0.000000e+00 0.000000e+00
1
Step 323000
Ar 9.582772e-01 0.000000e+00 0.000000e+00
1
Step 324000
Ar 9.310854e-01 0.000000e+00 0.000000e+00
1
Step 325000
Ar 1.104435e+00 0.000000e+00 0.000000e+00
1
Step 326000
Ar 8.778222e-01 0.000000e+00 0.000000e+00
1
Step 327000
Ar 1.149352e+00 0.000000e+00 0.000000e+00
1
Step 328000
Ar 9.389185e-01 0.000000e+00 0.000000e+00
1
Step 329000
Ar 1.202723e+00 0.000000e+00 0.000000e+00
1
Step 330000
Ar 9.748815e-01 0.000000e+00 0.000000e+00
1
Step 331000
Ar 1.148257e+00 0.000000e+00 0.000000e+00
1
Step 332000
Ar 9.292066e-01 0.000000e+00 0.000000e+00
1
Step 333000
Ar 1.000650e+00 0.000000e+00 0.000000e+00
1
Step 334000
Ar 1.102377e+00 0.000000e+00 0.000000e+00
1
Step 335000
Ar 8.105623e-01 0.000000e+00 0.000000e+00
1
Step 336000
Ar 1.008604e+00 0.000000e+00 0.000000e+00
1
Step 337000
Ar 9.929390e-01 0.000000e+00 0.000000e+00
1
Step 338000
Ar 1.071244e+00 0.000000e+00 0.000000e+00
1
Step 339000
Ar 8.545149e-01 0.000000e+00 0.000000e+00
1
Step 340000
Ar 1.377200e+00 0.000000e+00 0.000000e+00
1
Step 341000
Ar 1.076501e+00 0.000000e+00 0.000000e+00
1
Step 342000
Ar 1.065134e+00 0.000000e+00 0.000000e+00
1
Step 343000
Ar 8.666398e-01 0.000000e+00 0.000000e+00
1
Step 344000
Ar 1.052174e+00 0.000000e+00 0.000000e+00
1
Step 345000
Ar 6.771063e-01 0.000000e+00 0.000000e+00
1
Step 346000
Ar 9.508240e-01 0.000000e+00 0.000000e+00
1
Step 347000
Ar 8.089197e-01 0.000000e+00 0.000000e+00
1
Step 348000
Ar 1.085910e+00 0.000000e+00 0.000000e+00
1
Step 349000
Ar 1.119735e+00 0.000000e+00 0.000000e+00
1
Step 350000
Ar 9.717840e-01 0.000000e+00 0.000000e+00
1
Step 351000
Ar 9.381845e-01 0.000000e+00 0.000000e+00
1
Step 352000
Ar 8.810344e-01 0.000000e+00 0.000000e+00
1
Step 353000
Ar 1.029378e+00 0.000000e+00 0.000000e+00
1
Step 354000
Ar 1.057788e+00 0.000000e+00 0.000000e+00
1
Step 355000
Ar 1.147689e+00 0.000000e+00 0.000000e+00
1
Step 356000
Ar 8.164466e-01 0.000000e+00 0.000000e+00
1
Step 357000
Ar 1.020291e+00 0.000000e+00 0.000000e+00
1
Step 358000
Ar 8.520131e-01 0.000000e+00 0.000000e+00
1
Step 359000
Ar 1.075211e+00 0.000000e+00 0.000000e+00
1
Step 360000
Ar 1.096078e+00 0.000000e+00 0.000000e+00
1
Step 361000
Ar 1.053398e+00 0.000000e+00 0.000000e+00
1
Step 362000
Ar 1.163993e+00 0.000000e+00 0.000000e+00
1
Step 363000
Ar 6.939038e-01 0.000000e+00 0.000000e+00
1
Step 364000
Ar 9.247284e-01 0.000000e+00 0.000000e+00
1
Step 365000
Ar 1.029768e+00 0.000000e+00 0.000000e+00
1
Step 366000
Ar 8.536978e-01 0.000000e+00 0.000000e+00
1
Step 367000
Ar 9.253099e-01 0.000000e+00 0.000000e+00
1
Step 368000
Ar 8.795743e-01 0.000000e+00 0.000000e+00
1
Step 369000
Ar 9.629042e-01 0.000000e+00 0.000000e+00
1
Step 370000
Ar 9.377560e-01 0.000000e+00 0.000000e+00
1
Step 371000
Ar 1.112586e+00 0.000000e+00 0.000000e+00
1
Step 372000
Ar 1.032287e+00 0.000000e+00 0.000000e+00
1
Step 373000
Ar 1.007823e+00 0.000000e+00 0.000000e+00
1
Step 374000
Ar 1.014798e+00 0.000000e+00 0.000000e+00
1
Step 375000
Ar 1.025839e+00 0.000000e+00 0.000000e+00
1
Step 376000
Ar 9.088488e-01 0.000000e+00 0.000000e+00
1
Step 377000
Ar 1.042107e+00 0.000000e+00 0.000000e+00
1
Step 378000
Ar 7.461081e-01 0.000000e+00 0.000000e+00
1
Step 379000
Ar 1.078903e+00 0.000000e+00 0.000000e+00
1
Step 380000
Ar 9.624586e-01 0.000000e+00 0.000000e+00
1
Step 381000
Ar 9.202911e-01 0.000000e+00 0.000000e+00
1
Step 382000
Ar 1.109195e+00 0.000000e+00 0.000000e+00
1
Step 383000
Ar 1.145423e+00 0.000000e+00 0.000000e+00
1
Step 384000
Ar 6.853199e-01 0.000000e+00 0.000000e+00
1
Step 385000
Ar 6.431599e-01 0.000000e+00 0.000000e+00
1
Step 386000
Ar 9.890103e-01 0.000000e+00 0.000000e+00
1
Step 387000
Ar 1.047277e+00 0.000000e+00 0.000000e+00
1
Step 388000
Ar 9.065529e-01 0.000000e+00 0.000000e+00
1
Step 389000
Ar 9.087962e-01 0.000000e+00 0.000000e+00
1
Step 390000
Ar 9.550107e-01 0.000000e+00 0.000000e+00
1
Step 391000
Ar 8.042885e-01 0.000000e+00 0.000000e+00
1
Step 392000
Ar 1.087692e+00 0.000000e+00 0.000000e+00
1
Step 393000
Ar 9.481340e-01 0.000000e+00 0.000000e+00
1
Step 394000
Ar 1.003196e+00 0.000000e+00 0.000000e+00
1
Step 395000
Ar 9.554781e-01 0.000000e+00 0.000000e+00
1
Step 396000
Ar 9.632338e-01 0.000000e+00 0.000000e+00
1
Step 397000
Ar 8.736605e-01 0.000000e+00 0.000000e+00
1
Step 398000
Ar 1.145988e+00 0.000000e+00 0.000000e+00
1
Step 399000
Ar 1.102855e+00 0.000000e+00 0.000000e+00
1
Step 400000
Ar 1.023910e+00 0.000000e+00 0.000000e+00
1
Step 401000
Ar 9.421148e-01 0.000000e+00 0.000000e+00
1
Step 402000
Ar 9.238382e-01 0.000000e+00 0.000000e+00
1
Step 403000
Ar 1.144160e+00 0.000000e+00 0.000000e+00
1
Step 404000
Ar 9.527824e-01 0.000000e+00 0.000000e+00
1
Step 405000
Ar 9.687666e-01 0.000000e+00 0.000000e+00
1
Step 406000
Ar 1.004485e+00 0.000000e+00 0.000000e+00
1
Step 407000
Ar 1.120608e+00 0.000000e+00 0.000000e+00
1
Step 408000
Ar 1.082971e+00 0.000000e+00 0.000000e+00
1
Step 409000
Ar 9.249354e-01 0.000000e+00 0.000000e+00
1
Step 410000
Ar 1.026397e+00 0.000000e+00 0.000000e+00
1
Step 411000
Ar 1.024766e+00 0.000000e+00 0.000000e+00
1
Step 412000
Ar 1.084094e+00 0.000000e+00 0.000000e+00
1
Step 413000
Ar 1.019840e+00 0.000000e+00 0.000000e+00
1
Step 414000
Ar 1.086480e+00 0.000000e+00 0.000000e+00
1
Step 415000
Ar 9.611671e-01 0.000000e+00 0.000000e+00
1
Step 416000
Ar 8.996040e-01 0.000000e+00 0.000000e+00
1
Step 417000
Ar 9.599338e-01 0.000000e+00 0.000000e+00
1
Step 418000
Ar 1.015570e+00 0.000000e+00 0.000000e+00
1
Step 419000
Ar 7.590279e-01 0.000000e+00 0.000000e+00
1
Step 420000
Ar 9.669023e-01 0.000000e+00 0.000000e+00
1
Step 421000
Ar 1.187241e+00 0.000000e+00 0.000000e+00
1
Step 422000
Ar 1.034332e+00 0.000000e+00 0.000000e+00
1
Step 423000
Ar 1.018762e+00 0.000000e+00 0.000000e+00
1
Step 424000
Ar 1.029652e+00 0.000000e+00 0.000000e+00
1
Step 425000
Ar 1.010684e+00 0.000000e+00 0.000000e+00
1
Step 426000
Ar 6.771953e-01 0.000000e+00 0.000000e+00
1
Step 427000
Ar 1.029025e+00 0.000000e+00 0.000000e+00
1
Step 428000
Ar 7.454714e-01 0.000000e+00 0.000000e+00
1
Step 429000
Ar 9.609236e-01 0.000000e+00 0.000000e+00
1
Step 430000
Ar 1.040636e+00 0.000000e+00 0.000000e+00
1
Step 431000
Ar 9.898496e-01 0.000000e+00 0.000000e+00
1
Step 432000
Ar 1.018949e+00 0.000000e+00 0.000000e+00
1
Step 433000
Ar 1.022584e+00 0.000000e+00 0.000000e+00
1
Step 434000
Ar 9.664286e-01 0.000000e+00 0.000000e+00
1
Step 435000
Ar 1.030984e+00 0.000000e+00 0.000000e+00
1
Step 436000
Ar 1.139478e+00 0.000000e+00 0.000000e+00
1
Step 437000
Ar 1.191343e+00 0.000000e+00 0.000000e+00
1
Step 438000
Ar 1.050042e+00 0.000000e+00 0.000000e+00
1
Step 439000
Ar 1.074567e+00 0.000000e+00 0.000000e+00
1
Step 440000
Ar 8.773229e-01 0.000000e+00 0.000000e+00
1
Step 441000
Ar 9.173933e-01 0.000000e+00 0.000000e+00
1
Step 442000
Ar 9.206659e-01 0.000000e+00 0.000000e+00
1
Step 443000
Ar 8.203888e-01 0.000000e+00 0.000000e+00
1
Step 444000
Ar 9.545190e-01 0.000000e+00 0.000000e+00
1
Step 445000
Ar 8.934989e-01 0.000000e+00 0.000000e+00
1
Step 446000
Ar 9.379008e-01 0.000000e+00 0.000000e+00
1
Step 447000
Ar 1.087648e+00 0.000000e+00 0.000000e+00
1
Step 448000
Ar 1.040859e+00 0.000000e+00 0.000000e+00
1
Step 449000
Ar 9.101069e-01 0.000000e+00 0.000000e+00
1
Step 450000
Ar 9.578838e-01 0.000000e+00 0.000000e+00
1
Step 451000
Ar 8.954479e-01 0.000000e+00 0.000000e+00
1
Step 452000
Ar 1.051011e+00 0.000000e+00 0.000000e+00
1
Step 453000
Ar 7.746119e-01 0.000000e+00 0.000000e+00
1
Step 454000
Ar 1.014324e+00 0.000000e+00 0.000000e+00
1
Step 455000
Ar 1.193759e+00 0.000000e+00 0.000000e+00
1
Step 456000
Ar 9.606938e-01 0.000000e+00 0.000000e+00
1
Step 457000
Ar 1.157321e+00 0.000000e+00 0.000000e+00
1
Step 458000
Ar 1.024379e+00 0.000000e+00 0.000000e+00
1
Step 459000
Ar 7.744668e-01 0.000000e+00 0.000000e+00
1
Step 460000
Ar 1.036279e+00 0.000000e+00 0.000000e+00
1
Step 461000
Ar 1.034760e+00 0.000000e+00 0.000000e+00
1
Step 462000
Ar 9.534754e-01 0.000000e+00 0.000000e+00
1
Step 463000
Ar 8.911380e-01 0.000000e+00 0.000000e+00
1
Step 464000
Ar 9.767599e-01 0.000000e+00 0.000000e+00
1
Step 465000
Ar 1.040243e+00 0.000000e+00 0.000000e+00
1
Step 466000
Ar 8.103852e-01 0.000000e+00 0.000000e+00
1
Step 467000
Ar 8.984176e-01 0.000000e+00 0.000000e+00
1
Step 468000
Ar 1.065354e+00 0.000000e+00 0.000000e+00
1
Step 469000
Ar 8.588767e-01 0.000000e+00 0.000000e+00
1
Step 470000
Ar 1.021735e+00 0.000000e+00 0.000000e+00
1
Step 471000
Ar 9.610343e-01 0.000000e+00 0.000000e+00
1
Step 472000
Ar 9.834237e-01 0.000000e+00 0.000000e+00
1
Step 473000
Ar 7.556631e-01 0.000000e+00 0.000000e+00
1
Step 474000
Ar 1.012770e+00 0.000000e+00 0.000000e+00
1
Step 475000
Ar 8.534449e-01 0.000000e+00 0.000000e+00
1
Step 476000
Ar 9.385457e-01 0.000000e+00 0.000000e+00
1
Step 477000
Ar 1.194830e+00 0.000000e+00 0.000000e+00
1
Step 478000
Ar 9.958526e-01 0.000000e+00 0.000000e+00
1
Step 479000
Ar 1.062488e+00 0.000000e+00 0.000000e+00
1
Step 480000
Ar 1.091412e+00 0.000000e+00 0.000000e+00
1
Step 481000
Ar 5.930122e-01 0.000000e+00 0.000000e+00
1
Step 482000
Ar 9.632358e-01 0.000000e+00 0.000000e+00
1
Step 483000
Ar 9.365645e-01 0.000000e+00 0.000000e+00
1
Step 484000
Ar 1.041035e+00 0.000000e+00 0.000000e+00
1
Step 485000
Ar 9.159001e-01 0.000000e+00 0.000000e+00
1
Step 486000
Ar 1.091024e+00 0.000000e+00 0.000000e+00
1
Step 487000
Ar 7.773545e-01 0.000000e+00 0.000000e+00
1
Step 488000
Ar 1.030447e+00 0.000000e+00 0.000000e+00
1
Step 489000
Ar 9.022978e-01 0.000000e+00 0.000000e+00
1
Step 490000
Ar 1.144609e+00 0.000000e+00 0.000000e+00
1
Step 491000
Ar 9.715289e-01 0.000000e+00 0.000000e+00
1
Step 492000
Ar 9.201712e-01 0.000000e+00 0.000000e+00
1
Step 493000
Ar 6.815219e-01 0.000000e+00 0.000000e+00
1
Step 494000
Ar 1.083257e+00 0.000000e+00 0.000000e+00
1
Step 495000
Ar 1.198011e+00 0.000000e+00 0.000000e+00
1
Step 496000
Ar 1.054741e+00 0.000000e+00 0.000000e+00
1
Step 497000
Ar 9.608010e-01 0.000000e+00 0.000000e+00
1
Step 498000
Ar 1.025677e+00 0.000000e+00 0.000000e+00
1
Step 499000
Ar 7.854018e-01 0.000000e+00 0.000000e+00
1
Step 500000
Ar 1.082160e+00 0.000000e+00 0.000000e+00
1
Step 501000
Ar 1.099792e+00 0.000000e+00 0.000000e+00
1
Step 502000
Ar 9.334005e-01 0.000000e+00 0.000000e+00
1
Step 503000
Ar 9.418556e-01 0.000000e+00 0.000000e+00
1
Step 504000
Ar 9.688844e-01 0.000000e+00 0.000000e+00
1
Step 505000
Ar 1.120398e+00 0.000000e+00 0.000000e+00
1
Step 506000
Ar 1.006877e+00 0.000000e+00 0.000000e+00
1
Step 507000
Ar 9.943838e-01 0.000000e+00 0.000000e+00
1
Step 508000
Ar 9.501783e-01 0.000000e+00 0.000000e+00
1
Step 509000
Ar 1.120034e+00 0.000000e+00 0.000000e+00
1
Step 510000
Ar 9.584154e-01 0.000000e+00 0.000000e+00
1
Step 511000
Ar 8.456234e-01 0.000000e+00 0.000000e+00
1
Step 512000
Ar 1.070117e+00 0.000000e+00 0.000000e+00
1
Step 513000
Ar 1.122961e+00 0.000000e+00 0.000000e+00
1
Step 514000
Ar 1.003850e+00 0.000000e+00 0.000000e+00
1
Step 515000
Ar 9.899268e-01 0.000000e+00 0.000000e+00
1
Step 516000
Ar 9.050653e-01 0.000000e+00 0.000000e+00
1
Step 517000
Ar 1.065246e+00 0.000000e+00 0.000000e+00
1
Step 518000
Ar 9.813568e-01 0.000000e+00 0.000000e+00
1
Step 519000
Ar 1.087606e+00 0.000000e+00 0.000000e+00
1
Step 520000
Ar 9.336628e-01 0.000000e+00 0.000000e+00
1
Step 521000
Ar 1.000481e+00 0.000000e+00 0.000000e+00
1
Step 522000
Ar 1.050163e+00 0.000000e+00 0.000000e+00
1
Step 523000
Ar 1.053214e+00 0.000000e+00 0.000000e+00
1
Step 524000
Ar 1.046099e+00 0.000000e+00 0.000000e+00
1
Step 525000
Ar 1.139243e+00 0.000000e+00 0.000000e+00
1
Step 526000
Ar 1.051434e+00 0.000000e+00 0.000000e+00
1
Step 527000
Ar 1.135709e+00 0.000000e+00 0.000000e+00
1
Step 528000
Ar 9.931267e-01 0.000000e+00 0.000000e+00
1
Step 529000
Ar 1.264382e+00 0.000000e+00 0.000000e+00
1
Step 530000
Ar 9.488162e-01 0.000000e+00 0.000000e+00
1
Step 531000
Ar 9.607968e-01 0.000000e+00 0.000000e+00
1
Step 532000
Ar 1.157893e+00 0.000000e+00 0.000000e+00
1
Step 533000
Ar 1.050372e+00 0.000000e+00 0.000000e+00
1
Step 534000
Ar 1.066867e+00 0.000000e+00 0.000000e+00
1
Step 535000
Ar 1.164114e+00 0.000000e+00 0.000000e+00
1
Step 536000
Ar 1.040289e+00 0.000000e+00 0.000000e+00
1
Step 537000
Ar 1.061546e+00 0.000000e+00 0.000000e+00
1
Step 538000
Ar 1.103685e+00 0.000000e+00 0.000000e+00
1
Step 539000
Ar 9.953521e-01 0.000000e+00 0.000000e+00
1
Step 540000
Ar 9.989576e-01 0.000000e+00 0.000000e+00
1
Step 541000
Ar 1.135792e+00 0.000000e+00 0.000000e+00
1
Step 542000
Ar 1.043460e+00 0.000000e+00 0.000000e+00
1
Step 543000
Ar 1.113121e+00 0.000000e+00 0.000000e+00
1
Step 544000
Ar 1.166811e+00 0.000000e+00 0.000000e+00
1
Step 545000
Ar 9.672160e-01 0.000000e+00 0.000000e+00
1
Step 546000
Ar 1.061743e+00 0.000000e+00 0.000000e+00
1
Step 547000
Ar 1.119423e+00 0.000000e+00 0.000000e+00
1
Step 548000
Ar 1.043882e+00 0.000000e+00 0.000000e+00
1
Step 549000
Ar 1.069431e+00 0.000000e+00 0.000000e+00
1
Step 550000
Ar 9.913515e-01 0.000000e+00 0.000000e+00
1
Step 551000
Ar 1.025081e+00 0.000000e+00 0.000000e+00
1
Step 552000
Ar 1.172003e+00 0.000000e+00 0.000000e+00
1
Step 553000
Ar 1.066158e+00 0.000000e+00 0.000000e+00
1
Step 554000
Ar 9.657712e-01 0.000000e+00 0.000000e+00
1
Step 555000
Ar 1.048890e+00 0.000000e+00 0.000000e+00
1
Step 556000
Ar 1.092116e+00 0.000000e+00 0.000000e+00
1
Step 557000
Ar 1.022007e+00 0.000000e+00 0.000000e+00
1
Step 558000
Ar 1.115173e+00 0.000000e+00 0.000000e+00
1
Step 559000
Ar 1.052167e+00 0.000000e+00 0.000000e+00
1
Step 560000
Ar 1.116247e+00 0.000000e+00 0.000000e+00
1
Step 561000
Ar 1.033289e+00 0.000000e+00 0.000000e+00
1
Step 562000
Ar 1.027155e+00 0.000000e+00 0.000000e+00
1
Step 563000
Ar 1.067509e+00 0.000000e+00 0.000000e+00
1
Step 564000
Ar 1.150370e+00 0.000000e+00 0.000000e+00
1
Step 565000
Ar 9.834496e-01 0.000000e+00 0.000000e+00
1
Step 566000
Ar 9.684115e-01 0.000000e+00 0.000000e+00
1
Step 567000
Ar 1.016756e+00 0.000000e+00 0.000000e+00
1
Step 568000
Ar 9.707773e-01 0.000000e+00 0.000000e+00
1
Step 569000
Ar 9.845883e-01 0.000000e+00 0.000000e+00
1
Step 570000
Ar 9.895003e-01 0.000000e+00 0.000000e+00
1
Step 571000
Ar 1.044086e+00 0.000000e+00 0.000000e+00
1
Step 572000
Ar 1.165676e+00 0.000000e+00 0.000000e+00
1
Step 573000
Ar 1.005508e+00 0.000000e+00 0.000000e+00
1
Step 574000
Ar 1.047311e+00 0.000000e+00 0.000000e+00
1
Step 575000
Ar 1.013383e+00 0.000000e+00 0.000000e+00
1
Step 576000
Ar 1.153611e+00 0.000000e+00 0.000000e+00
1
Step 577000
Ar 1.032868e+00 0.000000e+00 0.000000e+00
1
Step 578000
Ar 9.625875e-01 0.000000e+00 0.000000e+00
1
Step 579000
Ar 1.071235e+00 0.000000e+00 0.000000e+00
1
Step 580000
Ar 9.547600e-01 0.000000e+00 0.000000e+00
1
Step 581000
Ar 9.933916e-01 0.000000e+00 0.000000e+00
1
Step 582000
Ar 1.105591e+00 0.000000e+00 0.000000e+00
1
Step 583000
Ar 1.104871e+00 0.000000e+00 0.000000e+00
1
Step 584000
Ar 1.049074e+00 0.000000e+00 0.000000e+00
1
Step 585000
Ar 9.867720e-01 0.000000e+00 0.000000e+00
1
Step 586000
Ar 9.903404e-01 0.000000e+00 0.000000e+00
1
Step 587000
Ar 1.153000e+00 0.000000e+00 0.000000e+00
1
Step 588000
Ar 9.546458e-01 0.000000e+00 0.000000e+00
1
Step 589000
Ar 1.013746e+00 0.000000e+00 0.000000e+00
1
Step 590000
Ar 1.009143e+00 0.000000e+00 0.000000e+00
1
Step 591000
Ar 1.031039e+00 0.000000e+00 0.000000e+00
1
Step 592000
Ar 1.020041e+00 0.000000e+00 0.000000e+00
1
Step 593000
Ar 1.116644e+00 0.000000e+00 0.000000e+00
1
Step 594000
Ar 9.838137e-01 0.000000e+00 0.000000e+00
1
Step 595000
Ar 9.857174e-01 0.000000e+00 0.000000e+00
1
Step 596000
Ar 1.110156e+00 0.000000e+00 0.000000e+00
1
Step 597000
Ar 1.014988e+00 0.000000e+00 0.000000e+00
1
Step 598000
Ar 1.025271e+00 0.000000e+00 0.000000e+00
1
Step 599000
Ar 1.022709e+00 0.000000e+00 0.000000e+00
1
Step 600000
Ar 9.787609e-01 0.000000e+00 0.000000e+00
1
Step 601000
Ar 1.147676e+00 0.000000e+00 0.000000e+00
1
Step 602000
Ar 1.003187e+00 0.000000e+00 0.000000e+00
1
Step 603000
Ar 1.062925e+00 0.000000e+00 0.000000e+00
1
Step 604000
Ar 9.967530e-01 0.000000e+00 0.000000e+00
1
Step 605000
Ar 1.042973e+00 0.000000e+00 0.000000e+00
1
Step 606000
Ar 1.111965e+00 0.000000e+00 0.000000e+00
1
Step 607000
Ar 1.071186e+00 0.000000e+00 0.000000e+00
1
Step 608000
Ar 9.838675e-01 0.000000e+00 0.000000e+00
1
Step 609000
Ar 1.138075e+00 0.000000e+00 0.000000e+00
1
Step 610000
Ar 1.007036e+00 0.000000e+00 0.000000e+00
1
Step 611000
Ar 1.056463e+00 0.000000e+00 0.000000e+00
1
Step 612000
Ar 9.750030e-01 0.000000e+00 0.000000e+00
1
Step 613000
Ar 1.154499e+00 0.000000e+00 0.000000e+00
1
Step 614000
Ar 1.020762e+00 0.000000e+00 0.000000e+00
1
Step 615000
Ar 1.131880e+00 0.000000e+00 0.000000e+00
1
Step 616000
Ar 1.066509e+00 0.000000e+00 0.000000e+00
1
Step 617000
Ar 9.985227e-01 0.000000e+00 0.000000e+00
1
Step 618000
Ar 1.092564e+00 0.000000e+00 0.000000e+00
1
Step 619000
Ar 1.186775e+00 0.000000e+00 0.000000e+00
1
Step 620000
Ar 1.006898e+00 0.000000e+00 0.000000e+00
1
Step 621000
Ar 9.640235e-01 0.000000e+00 0.000000e+00
1
Step 622000
Ar 1.051835e+00 0.000000e+00 0.000000e+00
1
Step 623000
Ar 1.112831e+00 0.000000e+00 0.000000e+00
1
Step 624000
Ar 1.090810e+00 0.000000e+00 0.000000e+00
1
Step 625000
Ar 1.038395e+00 0.000000e+00 0.000000e+00
1
Step 626000
Ar 1.121004e+00 0.000000e+00 0.000000e+00
1
Step 627000
Ar 1.044602e+00 0.000000e+00 0.000000e+00
1
Step 628000
Ar 1.139081e+00 0.000000e+00 0.000000e+00
1
Step 629000
Ar 1.034243e+00 0.000000e+00 0.000000e+00
1
Step 630000
Ar 1.132619e+00 0.000000e+00 0.000000e+00
1
Step 631000
Ar 1.205496e+00 0.000000e+00 0.000000e+00
1
Step 632000
Ar 1.004428e+00 0.000000e+00 0.000000e+00
1
Step 633000
Ar 1.056133e+00 0.000000e+00 0.000000e+00
1
Step 634000
Ar 9.923096e-01 0.000000e+00 0.000000e+00
1
Step 635000
Ar 9.928525e-01 0.000000e+00 0.000000e+00
1
Step 636000
Ar 9.593298e-01 0.000000e+00 0.000000e+00
1
Step 637000
Ar 9.508031e-01 0.000000e+00 0.000000e+00
1
Step 638000
Ar 9.808385e-01 0.000000e+00 0.000000e+00
1
Step 639000
Ar 1.009889e+00 0.000000e+00 0.000000e+00
1
Step 640000
Ar 1.076720e+00 0.000000e+00 0.000000e+00
1
Step 641000
Ar 1.016775e+00 0.000000e+00 0.000000e+00
1
Step 642000
Ar 1.073755e+00 0.000000e+00 0.000000e+00
1
Step 643000
Ar 9.962955e-01 0.000000e+00 0.000000e+00
1
Step 644000
Ar 9.678747e-01 0.000000e+00 0.000000e+00
1
Step 645000
Ar 9.664569e-01 0.000000e+00 0.000000e+00
1
Step 646000
Ar 1.019394e+00 0.000000e+00 0.000000e+00
1
Step 647000
Ar 1.006197e+00 0.000000e+00 0.000000e+00
1
Step 648000
Ar 1.009238e+00 0.000000e+00 0.000000e+00
1
Step 649000
Ar 9.711852e-01 0.000000e+00 0.000000e+00
1
Step 650000
Ar 1.167679e+00 0.000000e+00 0.000000e+00
1
Step 651000
Ar 1.084282e+00 0.000000e+00 0.000000e+00
1
Step 652000
Ar 1.026611e+00 0.000000e+00 0.000000e+00
1
Step 653000
Ar 1.024870e+00 0.000000e+00 0.000000e+00
1
Step 654000
Ar 1.043376e+00 0.000000e+00 0.000000e+00
1
Step 655000
Ar 9.658278e-01 0.000000e+00 0.000000e+00
1
Step 656000
Ar 9.927804e-01 0.000000e+00 0.000000e+00
1
Step 657000
Ar 1.071367e+00 0.000000e+00 0.000000e+00
1
Step 658000
Ar 1.020290e+00 0.000000e+00 0.000000e+00
1
Step 659000
Ar 9.950002e-01 0.000000e+00 0.000000e+00
1
Step 660000
Ar 9.926293e-01 0.000000e+00 0.000000e+00
1
Step 661000
Ar 1.131343e+00 0.000000e+00 0.000000e+00
1
Step 662000
Ar 9.438347e-01 0.000000e+00 0.000000e+00
1
Step 663000
Ar 1.236485e+00 0.000000e+00 0.000000e+00
1
Step 664000
Ar 1.123655e+00 0.000000e+00 0.000000e+00
1
Step 665000
Ar 1.042286e+00 0.000000e+00 0.000000e+00
1
Step 666000
Ar 1.063524e+00 0.000000e+00 0.000000e+00
1
Step 667000
Ar 1.019071e+00 0.000000e+00 0.000000e+00
1
Step 668000
Ar 1.060547e+00 0.000000e+00 0.000000e+00
1
Step 669000
Ar 1.099603e+00 0.000000e+00 0.000000e+00
1
Step 670000
Ar 1.014753e+00 0.000000e+00 0.000000e+00
1
Step 671000
Ar 9.810866e-01 0.000000e+00 0.000000e+00
1
Step 672000
Ar 9.530447e-01 0.000000e+00 0.000000e+00
1
Step 673000
Ar 1.038819e+00 0.000000e+00 0.000000e+00
1
Step 674000
Ar 1.008833e+00 0.000000e+00 0.000000e+00
1
Step 675000
Ar 9.973756e-01 0.000000e+00 0.000000e+00
1
Step 676000
Ar 9.671850e-01 0.000000e+00 0.000000e+00
1
Step 677000
Ar 9.727967e-01 0.000000e+00 0.000000e+00
1
Step 678000
Ar 1.041930e+00 0.000000e+00 0.000000e+00
1
Step 679000
Ar 1.000010e+00 0.000000e+00 0.000000e+00
1
Step 680000
Ar 1.015459e+00 0.000000e+00 0.000000e+00
1
Step 681000
Ar 1.208052e+00 0.000000e+00 0.000000e+00
1
Step 682000
Ar 1.100082e+00 0.000000e+00 0.000000e+00
1
Step 683000
Ar 1.112980e+00 0.000000e+00 0.000000e+00
1
Step 684000
Ar 1.097929e+00 0.000000e+00 0.000000e+00
1
Step 685000
Ar 9.977502e-01 0.000000e+00 0.000000e+00
1
Step 686000
Ar 1.112295e+00 0.000000e+00 0.000000e+00
1
Step 687000
Ar 9.602793e-01 0.000000e+00 0.000000e+00
1
Step 688000
Ar 9.589203e-01 0.000000e+00 0.000000e+00
1
Step 689000
Ar 1.032644e+00 0.000000e+00 0.000000e+00
1
Step 690000
Ar 1.030416e+00 0.000000e+00 0.000000e+00
1
Step 691000
Ar 9.633125e-01 0.000000e+00 0.000000e+00
1
Step 692000
Ar 9.858563e-01 0.000000e+00 0.000000e+00
1
Step 693000
Ar 9.762716e-01 0.000000e+00 0.000000e+00
1
Step 694000
Ar 1.145188e+00 0.000000e+00 0.000000e+00
1
Step 695000
Ar 1.061884e+00 0.000000e+00 0.000000e+00
1
Step 696000
Ar 9.985306e-01 0.000000e+00 0.000000e+00
1
Step 697000
Ar 1.088128e+00 0.000000e+00 0.000000e+00
1
Step 698000
Ar 1.051431e+00 0.000000e+00 0.000000e+00
1
Step 699000
Ar 9.661435e-01 0.000000e+00 0.000000e+00
1
Step 700000
Ar 1.050139e+00 0.000000e+00 0.000000e+00
1
Step 701000
Ar 9.716856e-01 0.000000e+00 0.000000e+00
1
Step 702000
Ar 1.028096e+00 0.000000e+00 0.000000e+00
1
Step 703000
Ar 1.110545e+00 0.000000e+00 0.000000e+00
1
Step 704000
Ar 1.139391e+00 0.000000e+00 0.000000e+00
1
Step 705000
Ar 1.136410e+00 0.000000e+00 0.000000e+00
1
Step 706000
Ar 1.056832e+00 0.000000e+00 0.000000e+00
1
Step 707000
Ar 1.288197e+00 0.000000e+00 0.000000e+00
1
Step 708000
Ar 1.071206e+00 0.000000e+00 0.000000e+00
1
Step 709000
Ar 1.134874e+00 0.000000e+00 0.000000e+00
1
Step 710000
Ar 1.184963e+00 0.000000e+00 0.000000e+00
1
Step 711000
Ar 9.965004e-01 0.000000e+00 0.000000e+00
1
Step 712000
Ar 9.461191e-01 0.000000e+00 0.000000e+00
1
Step 713000
Ar 1.098423e+00 0.000000e+00 0.000000e+00
1
Step 714000
Ar 1.010338e+00 0.000000e+00 0.000000e+00
1
Step 715000
Ar 9.833282e-01 0.000000e+00 0.000000e+00
1
Step 716000
Ar 1.218345e+00 0.000000e+00 0.000000e+00
1
Step 717000
Ar 1.095304e+00 0.000000e+00 0.000000e+00
1
Step 718000
Ar 1.035387e+00 0.000000e+00 0.000000e+00
1
Step 719000
Ar 1.124630e+00 0.000000e+00 0.000000e+00
1
Step 720000
Ar 9.958682e-01 0.000000e+00 0.000000e+00
1
Step 721000
Ar 9.885174e-01 0.000000e+00 0.000000e+00
1
Step 722000
Ar 9.594121e-01 0.000000e+00 0.000000e+00
1
Step 723000
Ar 1.001548e+00 0.000000e+00 0.000000e+00
1
Step 724000
Ar 1.068797e+00 0.000000e+00 0.000000e+00
1
Step 725000
Ar 1.012725e+00 0.000000e+00 0.000000e+00
1
Step 726000
Ar 9.764956e-01 0.000000e+00 0.000000e+00
1
Step 727000
Ar 9.615276e-01 0.000000e+00 0.000000e+00
1
Step 728000
Ar 9.849700e-01 0.000000e+00 0.000000e+00
1
Step 729000
Ar 1.131181e+00 0.000000e+00 0.000000e+00
1
Step 730000
Ar 1.116072e+00 0.000000e+00 0.000000e+00
1
Step 731000
Ar 1.077081e+00 0.000000e+00 0.000000e+00
1
Step 732000
Ar 1.017700e+00 0.000000e+00 0.000000e+00
1
Step 733000
Ar 1.124715e+00 0.000000e+00 0.000000e+00
1
Step 734000
Ar 9.947037e-01 0.000000e+00 0.000000e+00
1
Step 735000
Ar 1.137965e+00 0.000000e+00 0.000000e+00
1
Step 736000
Ar 1.076608e+00 0.000000e+00 0.000000e+00
1
Step 737000
Ar 9.991989e-01 0.000000e+00 0.000000e+00
1
Step 738000
Ar 9.947899e-01 0.000000e+00 0.000000e+00
1
Step 739000
Ar 1.037991e+00 0.000000e+00 0.000000e+00
1
Step 740000
Ar 1.039602e+00 0.000000e+00 0.000000e+00
1
Step 741000
Ar 1.071692e+00 0.000000e+00 0.000000e+00
1
Step 742000
Ar 1.004926e+00 0.000000e+00 0.000000e+00
1
Step 743000
Ar 1.122788e+00 0.000000e+00 0.000000e+00
1
Step 744000
Ar 1.085630e+00 0.000000e+00 0.000000e+00
1
Step 745000
Ar 1.071577e+00 0.000000e+00 0.000000e+00
1
Step 746000
Ar 1.052637e+00 0.000000e+00 0.000000e+00
1
Step 747000
Ar 1.115936e+00 0.000000e+00 0.000000e+00
1
Step 748000
Ar 1.025707e+00 0.000000e+00 0.000000e+00
1
Step 749000
Ar 9.728359e-01 0.000000e+00 0.000000e+00
1
Step 750000
Ar 1.053148e+00 0.000000e+00 0.000000e+00
1
Step 751000
Ar 1.044911e+00 0.000000e+00 0.000000e+00
1
Step 752000
Ar 9.982690e-01 0.000000e+00 0.000000e+00
1
Step 753000
Ar 1.084449e+00 0.000000e+00 0.000000e+00
1
Step 754000
Ar 1.125764e+00 0.000000e+00 0.000000e+00
1
Step 755000
Ar 1.201980e+00 0.000000e+00 0.000000e+00
1
Step 756000
Ar 9.978787e-01 0.000000e+00 0.000000e+00
1
Step 757000
Ar 1.033803e+00 0.000000e+00 0.000000e+00
1
Step 758000
Ar 9.852859e-01 0.000000e+00 0.000000e+00
1
Step 759000
Ar 1.192415e+00 0.000000e+00 0.000000e+00
1
Step 760000
Ar 1.098222e+00 0.000000e+00 0.000000e+00
1
Step 761000
Ar 1.185214e+00 0.000000e+00 0.000000e+00
1
Step 762000
Ar 1.128083e+00 0.000000e+00 0.000000e+00
1
Step 763000
Ar 1.002536e+00 0.000000e+00 0.000000e+00
1
Step 764000
Ar 1.055438e+00 0.000000e+00 0.000000e+00
1
Step 765000
Ar 1.067279e+00 0.000000e+00 0.000000e+00
1
Step 766000
Ar 1.131015e+00 0.000000e+00 0.000000e+00
1
Step 767000
Ar 1.102473e+00 0.000000e+00 0.000000e+00
1
Step 768000
Ar 1.020544e+00 0.000000e+00 0.000000e+00
1
Step 769000
Ar 1.037408e+00 0.000000e+00 0.000000e+00
1
Step 770000
Ar 1.087977e+00 0.000000e+00 0.000000e+00
1
Step 771000
Ar 9.845071e-01 0.000000e+00 0.000000e+00
1
Step 772000
Ar 1.030001e+00 0.000000e+00 0.000000e+00
1
Step 773000
Ar 1.150587e+00 0.000000e+00 0.000000e+00
1
Step 774000
Ar 1.127705e+00 0.000000e+00 0.000000e+00
1
Step 775000
Ar 1.087776e+00 0.000000e+00 0.000000e+00
1
Step 776000
Ar 1.037970e+00 0.000000e+00 0.000000e+00
1
Step 777000
Ar 1.154511e+00 0.000000e+00 0.000000e+00
1
Step 778000
Ar 1.075250e+00 0.000000e+00 0.000000e+00
1
Step 779000
Ar 1.098456e+00 0.000000e+00 0.000000e+00
1
Step 780000
Ar 9.813673e-01 0.000000e+00 0.000000e+00
1
Step 781000
Ar 1.236871e+00 0.000000e+00 0.000000e+00
1
Step 782000
Ar 1.113228e+00 0.000000e+00 0.000000e+00
1
Step 783000
Ar 1.097085e+00 0.000000e+00 0.000000e+00
1
Step 784000
Ar 1.039577e+00 0.000000e+00 0.000000e+00
1
Step 785000
Ar 1.057384e+00 0.000000e+00 0.000000e+00
1
Step 786000
Ar 9.809932e-01 0.000000e+00 0.000000e+00
1
Step 787000
Ar 1.058107e+00 0.000000e+00 0.000000e+00
1
Step 788000
Ar 1.137840e+00 0.000000e+00 0.000000e+00
1
Step 789000
Ar 1.105606e+00 0.000000e+00 0.000000e+00
1
Step 790000
Ar 9.593626e-01 0.000000e+00 0.000000e+00
1
Step 791000
Ar 9.835040e-01 0.000000e+00 0.000000e+00
1
Step 792000
Ar 1.011257e+00 0.000000e+00 0.000000e+00
1
Step 793000
Ar 1.030783e+00 0.000000e+00 0.000000e+00
1
Step 794000
Ar 1.130822e+00 0.000000e+00 0.000000e+00
1
Step 795000
Ar 1.021426e+00 0.000000e+00 0.000000e+00
1
Step 796000
Ar 9.646357e-01 0.000000e+00 0.000000e+00
1
Step 797000
Ar 1.064746e+00 0.000000e+00 0.000000e+00
1
Step 798000
Ar 9.773721e-01 0.000000e+00 0.000000e+00
1
Step 799000
Ar 1.024087e+00 0.000000e+00 0.000000e+00
1
Step 800000
Ar 9.964893e-01 0.000000e+00 0.000000e+00
1
Step 801000
Ar 9.528147e-01 0.000000e+00 0.000000e+00
1
Step 802000
Ar 1.008291e+00 0.000000e+00 0.000000e+00
1
Step 803000
Ar 1.011371e+00 0.000000e+00 0.000000e+00
1
Step 804000
Ar 1.000435e+00 0.000000e+00 0.000000e+00
1
Step 805000
Ar 9.662021e-01 0.000000e+00 0.000000e+00
1
Step 806000
Ar 1.152654e+00 0.000000e+00 0.000000e+00
1
Step 807000
Ar 1.059152e+00 0.000000e+00 0.000000e+00
1
Step 808000
Ar 9.792748e-01 0.000000e+00 0.000000e+00
1
Step 809000
Ar 1.104141e+00 0.000000e+00 0.000000e+00
1
Step 810000
Ar 1.073679e+00 0.000000e+00 0.000000e+00
1
Step 811000
Ar 9.915992e-01 0.000000e+00 0.000000e+00
1
Step 812000
Ar 9.571522e-01 0.000000e+00 0.000000e+00
1
Step 813000
Ar 9.911836e-01 0.000000e+00 0.000000e+00
1
Step 814000
Ar 1.040482e+00 0.000000e+00 0.000000e+00
1
Step 815000
Ar 9.835619e-01 0.000000e+00 0.000000e+00
1
Step 816000
Ar 1.070800e+00 0.000000e+00 0.000000e+00
1
Step 817000
Ar 9.577084e-01 0.000000e+00 0.000000e+00
1
Step 818000
Ar 9.919892e-01 0.000000e+00 0.000000e+00
1
Step 819000
Ar 1.057761e+00 0.000000e+00 0.000000e+00
1
Step 820000
Ar 1.062709e+00 0.000000e+00 0.000000e+00
1
Step 821000
Ar 1.016783e+00 0.000000e+00 0.000000e+00
1
Step 822000
Ar 1.123029e+00 0.000000e+00 0.000000e+00
1
Step 823000
Ar 9.616696e-01 0.000000e+00 0.000000e+00
1
Step 824000
Ar 1.078108e+00 0.000000e+00 0.000000e+00
1
Step 825000
Ar 9.759708e-01 0.000000e+00 0.000000e+00
1
Step 826000
Ar 1.057410e+00 0.000000e+00 0.000000e+00
1
Step 827000
Ar 1.047719e+00 0.000000e+00 0.000000e+00
1
Step 828000
Ar 1.072371e+00 0.000000e+00 0.000000e+00
1
Step 829000
Ar 1.033088e+00 0.000000e+00 0.000000e+00
1
Step 830000
Ar 1.007225e+00 0.000000e+00 0.000000e+00
1
Step 831000
Ar 1.118983e+00 0.000000e+00 0.000000e+00
1
Step 832000
Ar 1.036513e+00 0.000000e+00 0.000000e+00
1
Step 833000
Ar 1.182796e+00 0.000000e+00 0.000000e+00
1
Step 834000
Ar 1.062398e+00 0.000000e+00 0.000000e+00
1
Step 835000
Ar 9.644537e-01 0.000000e+00 0.000000e+00
1
Step 836000
Ar 1.007268e+00 0.000000e+00 0.000000e+00
1
Step 837000
Ar 1.103360e+00 0.000000e+00 0.000000e+00
1
Step 838000
Ar 9.630889e-01 0.000000e+00 0.000000e+00
1
Step 839000
Ar 9.735789e-01 0.000000e+00 0.000000e+00
1
Step 840000
Ar 1.020121e+00 0.000000e+00 0.000000e+00
1
Step 841000
Ar 1.072102e+00 0.000000e+00 0.000000e+00
1
Step 842000
Ar 1.061154e+00 0.000000e+00 0.000000e+00
1
Step 843000
Ar 1.008220e+00 0.000000e+00 0.000000e+00
1
Step 844000
Ar 1.025379e+00 0.000000e+00 0.000000e+00
1
Step 845000
Ar 1.003626e+00 0.000000e+00 0.000000e+00
1
Step 846000
Ar 1.076954e+00 0.000000e+00 0.000000e+00
1
Step 847000
Ar 1.073562e+00 0.000000e+00 0.000000e+00
1
Step 848000
Ar 1.000194e+00 0.000000e+00 0.000000e+00
1
Step 849000
Ar 1.027462e+00 0.000000e+00 0.000000e+00
1
Step 850000
Ar 1.113885e+00 0.000000e+00 0.000000e+00
1
Step 851000
Ar 1.262735e+00 0.000000e+00 0.000000e+00
1
Step 852000
Ar 9.541180e-01 0.000000e+00 0.000000e+00
1
Step 853000
Ar 1.044188e+00 0.000000e+00 0.000000e+00
1
Step 854000
Ar 1.018733e+00 0.000000e+00 0.000000e+00
1
Step 855000
Ar 9.846132e-01 0.000000e+00 0.000000e+00
1
Step 856000
Ar 1.110478e+00 0.000000e+00 0.000000e+00
1
Step 857000
Ar 1.044849e+00 0.000000e+00 0.000000e+00
1
Step 858000
Ar 1.165006e+00 0.000000e+00 0.000000e+00
1
Step 859000
Ar 9.947446e-01 0.000000e+00 0.000000e+00
1
Step 860000
Ar 1.015272e+00 0.000000e+00 0.000000e+00
1
Step 861000
Ar 9.924979e-01 0.000000e+00 0.000000e+00
1
Step 862000
Ar 1.000613e+00 0.000000e+00 0.000000e+00
1
Step 863000
Ar 1.090021e+00 0.000000e+00 0.000000e+00
1
Step 864000
Ar 9.719516e-01 0.000000e+00 0.000000e+00
1
Step 865000
Ar 1.030023e+00 0.000000e+00 0.000000e+00
1
Step 866000
Ar 1.080581e+00 0.000000e+00 0.000000e+00
1
Step 867000
Ar 1.081185e+00 0.000000e+00 0.000000e+00
1
Step 868000
Ar 1.076500e+00 0.000000e+00 0.000000e+00
1
Step 869000
Ar 1.004912e+00 0.000000e+00 0.000000e+00
1
Step 870000
Ar 1.094552e+00 0.000000e+00 0.000000e+00
1
Step 871000
Ar 1.095041e+00 0.000000e+00 0.000000e+00
1
Step 872000
Ar 1.039091e+00 0.000000e+00 0.000000e+00
1
Step 873000
Ar 1.020200e+00 0.000000e+00 0.000000e+00
1
Step 874000
Ar 9.998487e-01 0.000000e+00 0.000000e+00
1
Step 875000
Ar 1.006210e+00 0.000000e+00 0.000000e+00
1
Step 876000
Ar 1.117403e+00 0.000000e+00 0.000000e+00
1
Step 877000
Ar 1.109718e+00 0.000000e+00 0.000000e+00
1
Step 878000
Ar 1.026894e+00 0.000000e+00 0.000000e+00
1
Step 879000
Ar 1.059891e+00 0.000000e+00 0.000000e+00
1
Step 880000
Ar 9.681745e-01 0.000000e+00 0.000000e+00
1
Step 881000
Ar 1.066877e+00 0.000000e+00 0.000000e+00
1
Step 882000
Ar 1.047980e+00 0.000000e+00 0.000000e+00
1
Step 883000
Ar 1.190254e+00 0.000000e+00 0.000000e+00
1
Step 884000
Ar 1.092860e+00 0.000000e+00 0.000000e+00
1
Step 885000
Ar 1.064248e+00 0.000000e+00 0.000000e+00
1
Step 886000
Ar 1.008267e+00 0.000000e+00 0.000000e+00
1
Step 887000
Ar 1.135011e+00 0.000000e+00 0.000000e+00
1
Step 888000
Ar 1.252970e+00 0.000000e+00 0.000000e+00
1
Step 889000
Ar 1.086187e+00 0.000000e+00 0.000000e+00
1
Step 890000
Ar 1.069699e+00 0.000000e+00 0.000000e+00
1
Step 891000
Ar 9.520907e-01 0.000000e+00 0.000000e+00
1
Step 892000
Ar 1.005519e+00 0.000000e+00 0.000000e+00
1
Step 893000
Ar 9.662955e-01 0.000000e+00 0.000000e+00
1
Step 894000
Ar 1.130460e+00 0.000000e+00 0.000000e+00
1
Step 895000
Ar 1.014598e+00 0.000000e+00 0.000000e+00
1
Step 896000
Ar 1.056415e+00 0.000000e+00 0.000000e+00
1
Step 897000
Ar 1.113198e+00 0.000000e+00 0.000000e+00
1
Step 898000
Ar 9.897351e-01 0.000000e+00 0.000000e+00
1
Step 899000
Ar 9.519951e-01 0.000000e+00 0.000000e+00
1
Step 900000
Ar 9.960615e-01 0.000000e+00 0.000000e+00
1
Step 901000
Ar 9.949227e-01 0.000000e+00 0.000000e+00
1
Step 902000
Ar 1.101683e+00 0.000000e+00 0.000000e+00
1
Step 903000
Ar 1.133956e+00 0.000000e+00 0.000000e+00
1
Step 904000
Ar 9.664474e-01 0.000000e+00 0.000000e+00
1
Step 905000
Ar 1.210908e+00 0.000000e+00 0.000000e+00
1
Step 906000
Ar 1.012678e+00 0.000000e+00 0.000000e+00
1
Step 907000
Ar 1.016915e+00 0.000000e+00 0.000000e+00
1
Step 908000
Ar 9.732605e-01 0.000000e+00 0.000000e+00
1
Step 909000
Ar 1.035113e+00 0.000000e+00 0.000000e+00
1
Step 910000
Ar 1.175176e+00 0.000000e+00 0.000000e+00
1
Step 911000
Ar 9.748433e-01 0.000000e+00 0.000000e+00
1
Step 912000
Ar 9.778074e-01 0.000000e+00 0.000000e+00
1
Step 913000
Ar 1.008655e+00 0.000000e+00 0.000000e+00
1
Step 914000
Ar 1.079319e+00 0.000000e+00 0.000000e+00
1
Step 915000
Ar 1.082363e+00 0.000000e+00 0.000000e+00
1
Step 916000
Ar 9.658376e-01 0.000000e+00 0.000000e+00
1
Step 917000
Ar 1.243885e+00 0.000000e+00 0.000000e+00
1
Step 918000
Ar 9.504210e-01 0.000000e+00 0.000000e+00
1
Step 919000
Ar 1.030063e+00 0.000000e+00 0.000000e+00
1
Step 920000
Ar 1.020400e+00 0.000000e+00 0.000000e+00
1
Step 921000
Ar 1.030518e+00 0.000000e+00 0.000000e+00
1
Step 922000
Ar 9.958974e-01 0.000000e+00 0.000000e+00
1
Step 923000
Ar 9.686135e-01 0.000000e+00 0.000000e+00
1
Step 924000
Ar 1.155123e+00 0.000000e+00 0.000000e+00
1
Step 925000
Ar 1.164912e+00 0.000000e+00 0.000000e+00
1
Step 926000
Ar 1.181408e+00 0.000000e+00 0.000000e+00
1
Step 927000
Ar 1.069634e+00 0.000000e+00 0.000000e+00
1
Step 928000
Ar 9.721666e-01 0.000000e+00 0.000000e+00
1
Step 929000
Ar 9.557025e-01 0.000000e+00 0.000000e+00
1
Step 930000
Ar 1.037001e+00 0.000000e+00 0.000000e+00
1
Step 931000
Ar 9.919703e-01 0.000000e+00 0.000000e+00
1
Step 932000
Ar 1.100372e+00 0.000000e+00 0.000000e+00
1
Step 933000
Ar 1.093247e+00 0.000000e+00 0.000000e+00
1
Step 934000
Ar 1.054443e+00 0.000000e+00 0.000000e+00
1
Step 935000
Ar 9.793621e-01 0.000000e+00 0.000000e+00
1
Step 936000
Ar 9.926406e-01 0.000000e+00 0.000000e+00
1
Step 937000
Ar 9.465757e-01 0.000000e+00 0.000000e+00
1
Step 938000
Ar 1.003293e+00 0.000000e+00 0.000000e+00
1
Step 939000
Ar 1.082680e+00 0.000000e+00 0.000000e+00
1
Step 940000
Ar 1.004888e+00 0.000000e+00 0.000000e+00
1
Step 941000
Ar 9.565482e-01 0.000000e+00 0.000000e+00
1
Step 942000
Ar 9.884965e-01 0.000000e+00 0.000000e+00
1
Step 943000
Ar 1.116029e+00 0.000000e+00 0.000000e+00
1
Step 944000
Ar 1.078639e+00 0.000000e+00 0.000000e+00
1
Step 945000
Ar 1.176871e+00 0.000000e+00 0.000000e+00
1
Step 946000
Ar 1.050343e+00 0.000000e+00 0.000000e+00
1
Step 947000
Ar 1.048900e+00 0.000000e+00 0.000000e+00
1
Step 948000
Ar 9.856744e-01 0.000000e+00 0.000000e+00
1
Step 949000
Ar 9.507888e-01 0.000000e+00 0.000000e+00
1
Step 950000
Ar 1.193326e+00 0.000000e+00 0.000000e+00
1
Step 951000
Ar 1.004442e+00 0.000000e+00 0.000000e+00
1
Step 952000
Ar 1.129232e+00 0.000000e+00 0.000000e+00
1
Step 953000
Ar 1.050002e+00 0.000000e+00 0.000000e+00
1
Step 954000
Ar 9.798988e-01 0.000000e+00 0.000000e+00
1
Step 955000
Ar 1.132000e+00 0.000000e+00 0.000000e+00
1
Step 956000
Ar 1.053223e+00 0.000000e+00 0.000000e+00
1
Step 957000
Ar 1.223143e+00 0.000000e+00 0.000000e+00
1
Step 958000
Ar 1.027030e+00 0.000000e+00 0.000000e+00
1
Step 959000
Ar 1.062773e+00 0.000000e+00 0.000000e+00
1
Step 960000
Ar 1.023562e+00 0.000000e+00 0.000000e+00
1
Step 961000
Ar 9.912645e-01 0.000000e+00 0.000000e+00
1
Step 962000
Ar 1.053307e+00 0.000000e+00 0.000000e+00
1
Step 963000
Ar 1.049387e+00 0.000000e+00 0.000000e+00
1
Step 964000
Ar 1.011644e+00 0.000000e+00 0.000000e+00
1
Step 965000
Ar 9.963219e-01 0.000000e+00 0.000000e+00
1
Step 966000
Ar 1.020539e+00 0.000000e+00 0.000000e+00
1
Step 967000
Ar 1.149191e+00 0.000000e+00 0.000000e+00
1
Step 968000
Ar 1.018653e+00 0.000000e+00 0.000000e+00
1
Step 969000
Ar 1.035735e+00 0.000000e+00 0.000000e+00
1
Step 970000
Ar 1.245111e+00 0.000000e+00 0.000000e+00
1
Step 971000
Ar 9.567932e-01 0.000000e+00 0.000000e+00
1
Step 972000
Ar 9.436411e-01 0.000000e+00 0.000000e+00
1
Step 973000
Ar 1.169614e+00 0.000000e+00 0.000000e+00
1
Step 974000
Ar 1.031291e+00 0.000000e+00 0.000000e+00
1
Step 975000
Ar 1.025773e+00 0.000000e+00 0.000000e+00
1
Step 976000
Ar 1.024560e+00 0.000000e+00 0.000000e+00
1
Step 977000
Ar 9.594251e-01 0.000000e+00 0.000000e+00
1
Step 978000
Ar 1.087740e+00 0.000000e+00 0.000000e+00
1
Step 979000
Ar 1.080386e+00 0.000000e+00 0.000000e+00
1
Step 980000
Ar 1.024309e+00 0.000000e+00 0.000000e+00
1
Step 981000
Ar 9.471710e-01 0.000000e+00 0.000000e+00
1
Step 982000
Ar 9.952829e-01 0.000000e+00 0.000000e+00
1
Step 983000
Ar 1.137730e+00 0.000000e+00 0.000000e+00
1
Step 984000
Ar 9.939186e-01 0.000000e+00 0.000000e+00
1
Step 985000
Ar 1.049228e+00 0.000000e+00 0.000000e+00
1
Step 986000
Ar 9.572870e-01 0.000000e+00 0.000000e+00
1
Step 987000
Ar 1.034310e+00 0.000000e+00 0.000000e+00
1
Step 988000
Ar 1.189322e+00 0.000000e+00 0.000000e+00
1
Step 989000
Ar 9.560612e-01 0.000000e+00 0.000000e+00
1
Step 990000
Ar 1.081828e+00 0.000000e+00 0.000000e+00
1
Step 991000
Ar 1.073741e+00 0.000000e+00 0.000000e+00
1
Step 992000
Ar 1.059035e+00 0.000000e+00 0.000000e+00
1
Step 993000
Ar 1.095019e+00 0.000000e+00 0.000000e+00
1
Step 994000
Ar 1.087806e+00 0.000000e+00 0.000000e+00
1
Step 995000
Ar 9.941244e-01 0.000000e+00 0.000000e+00
1
Step 996000
Ar 1.031556e+00 0.000000e+00 0.000000e+00
1
Step 997000
Ar 1.083350e+00 0.000000e+00 0.000000e+00
1
Step 998000
Ar 1.022225e+00 0.000000e+00 0.000000e+00
1
Step 999000
Ar 1.002969e+00 0.000000e+00 0.000000e+00
