1
Step 120000
Ar 7.830130e-01 0.000000e+00 0.000000e+00
1
Step 121000
Ar 9.657010e-01 0.000000e+00 0.000000e+00
1
Step 122000
Ar 9.920914e-01 0.000000e+00 0.000000e+00
1
Step 123000
Ar 8.563782e-01 0.000000e+00 0.000000e+00
1
Step 124000
Ar 9.875973e-01 0.000000e+00 0.000000e+00
1
Step 125000
Ar 1.144358e+00 0.000000e+00 0.000000e+00
1
Step 126000
Ar 9.469497e-01 0.000000e+00 0.000000e+00
1
Step 127000
Ar 9.578084e-01 0.000000e+00 0.000000e+00
1
Step 128000
Ar 8.962559e-01 0.000000e+00 0.000000e+00
1
Step 129000
Ar 1.107725e+00 0.000000e+00 0.000000e+00
1
Step 130000
Ar 7.426353e-01 0.000000e+00 0.000000e+00
1
Step 131000
Ar 8.131483e-01 0.000000e+00 0.000000e+00
1
Step 132000
Ar 8.299844e-01 0.000000e+00 0.000000e+00
1
Step 133000
Ar 1.074937e+00 0.000000e+00 0.000000e+00
1
Step 134000
Ar 9.614581e-01 0.000000e+00 0.000000e+00
1
Step 135000
Ar 9.516554e-01 0.000000e+00 0.000000e+00
1
Step 136000
Ar 1.056054e+00 0.000000e+00 0.000000e+00
1
Step 137000
Ar 9.596143e-01 0.000000e+00 0.000000e+00
1
Step 138000
Ar 8.074484e-01 0.000000e+00 0.000000e+00
1
Step 139000
Ar 9.063350e-01 0.000000e+00 0.000000e+00
1
Step 140000
Ar 6.685363e-01 0.000000e+00 0.000000e+00
1
Step 141000
Ar 1.085020e+00 0.000000e+00 0.000000e+00
1
Step 142000
Ar 1.064898e+00 0.000000e+00 0.000000e+00
1
Step 143000
Ar 8.588179e-01 0.000000e+00 0.000000e+00
1
Step 144000
Ar 1.027733e+00 0.000000e+00 0.000000e+00
1
Step 145000
Ar 9.417689e-01 0.000000e+00 0.000000e+00
1
Step 146000
Ar 9.789163e-01 0.000000e+00 0.000000e+00
1
Step 147000
Ar 8.601063e-01 0.000000e+00 0.000000e+00
1
Step 148000
Ar 7.393534e-01 0.000000e+00 0.000000e+00
1
Step 149000
Ar 1.028224e+00 0.000000e+00 0.000000e+00
1
Step 150000
Ar 8.595277e-01 0.000000e+00 0.000000e+00
1
Step 151000
Ar 9.148839e-01 0.000000e+00 0.000000e+00
1
Step 152000
Ar 1.080782e+00 0.000000e+00 0.000000e+00
1
Step 153000
Ar 9.032701e-01 0.000000e+00 0.000000e+00
1
Step 154000
Ar 1.100200e+00 0.000000e+00 0.000000e+00
1
Step 155000
Ar 9.523459e-01 0.000000e+00 0.000000e+00
1
Step 156000
Ar 1.060639e+00 0.000000e+00 0.000000e+00
1
Step 157000
Ar 9.152502e-01 0.000000e+00 0.000000e+00
1
Step 158000
Ar 1.130742e+00 0.000000e+00 0.000000e+00
1
Step 159000
Ar 1.045300e+00 0.000000e+00 0.000000e+00
1
Step 160000
Ar 1.006886e+00 0.000000e+00 0.000000e+00
1
Step 161000
Ar 1.047805e+00 0.000000e+00 0.000000e+00
1
Step 162000
Ar 1.042790e+00 0.000000e+00 0.000000e+00
1
Step 163000
Ar 1.036351e+00 0.000000e+00 0.000000e+00
1
Step 164000
Ar 9.873042e-01 0.000000e+00 0.000000e+00
1
Step 165000
Ar 8.449398e-01 0.000000e+00 0.000000e+00
1
Step 166000
Ar 1.052170e+00 0.000000e+00 0.000000e+00
1
Step 167000
Ar 9.618833e-01 0.000000e+00 0.000000e+00
1
Step 168000
Ar 9.207837e-01 0.000000e+00 0.000000e+00
1
Step 169000
Ar 9.482392e-01 0.000000e+00 0.000000e+00
1
Step 170000
Ar 8.298699e-01 0.000000e+00 0.000000e+00
1
Step 171000
Ar 9.263322e-01 0.000000e+00 0.000000e+00
1
Step 172000
Ar 1.111932e+00 0.000000e+00 0.000000e+00
1
Step 173000
Ar 9.581505e-01 0.000000e+00 0.000000e+00
1
Step 174000
Ar 1.007265e+00 0.000000e+00 0.000000e+00
1
Step 175000
Ar 7.898644e-01 0.000000e+00 0.000000e+00
1
Step 176000
Ar 1.071163e+00 0.000000e+00 0.000000e+00
1
Step 177000
Ar 9.414807e-01 0.000000e+00 0.000000e+00
1
Step 178000
Ar 1.174465e+00 0.000000e+00 0.000000e+00
1
Step 179000
Ar 9.071522e-01 0.000000e+00 0.000000e+00
1
Step 180000
Ar 1.164025e+00 0.000000e+00 0.000000e+00
1
Step 181000
Ar 1.088300e+00 0.000000e+00 0.000000e+00
1
Step 182000
Ar 1.029981e+00 0.000000e+00 0.000000e+00
1
Step 183000
Ar 9.639087e-01 0.000000e+00 0.000000e+00
1
Step 184000
Ar 1.073599e+00 0.000000e+00 0.000000e+00
1
Step 185000
Ar 9.848775e-01 0.000000e+00 0.000000e+00
1
Step 186000
Ar 1.033159e+00 0.000000e+00 0.000000e+00
1
Step 187000
Ar 8.783906e-01 0.000000e+00 0.000000e+00
1
Step 188000
Ar 7.405905e-01 0.000000e+00 0.000000e+00
1
Step 189000
Ar 1.132952e+00 0.000000e+00 0.000000e+00
1
Step 190000
Ar 9.678339e-01 0.000000e+00 0.000000e+00
1
Step 191000
Ar 1.075263e+00 0.000000e+00 0.000000e+00
1
Step 192000
Ar 1.140045e+00 0.000000e+00 0.000000e+00
1
Step 193000
Ar 1.079586e+00 0.000000e+00 0.000000e+00
1
Step 194000
Ar 8.749444e-01 0.000000e+00 0.000000e+00
1
Step 195000
Ar 9.543025e-01 0.000000e+00 0.000000e+00
1
Step 196000
Ar 9.674653e-01 0.000000e+00 0.000000e+00
1
Step 197000
Ar 1.066034e+00 0.000000e+00 0.000000e+00
1
Step 198000
Ar 9.709922e-01 0.000000e+00 0.000000e+00
1
Step 199000
Ar 7.987887e-01 0.000000e+00 0.000000e+00
1
Step 200000
Ar 1.011133e+00 0.000000e+00 0.000000e+00
1
Step 201000
Ar 8.952162e-01 0.000000e+00 0.000000e+00
1
Step 202000
Ar 8.933195e-01 0.000000e+00 0.000000e+00
1
Step 203000
Ar 1.052065e+00 0.000000e+00 0.000000e+00
1
Step 204000
Ar 1.067572e+00 0.000000e+00 0.000000e+00
1
Step 205000
Ar 1.181596e+00 0.000000e+00 0.000000e+00
1
Step 206000
Ar 1.015348e+00 0.000000e+00 0.000000e+00
1
Step 207000
Ar 9.971324e-01 0.000000e+00 0.000000e+00
1
Step 208000
Ar 1.073468e+00 0.000000e+00 0.000000e+00
1
Step 209000
Ar 9.315544e-01 0.000000e+00 0.000000e+00
1
Step 210000
Ar 9.614183e-01 0.000000e+00 0.000000e+00
1
Step 211000
Ar 9.919484e-01 0.000000e+00 0.000000e+00
1
Step 212000
Ar 1.009541e+00 0.000000e+00 0.000000e+00
1
Step 213000
Ar 7.916020e-01 0.000000e+00 0.000000e+00
1
Step 214000
Ar 1.072269e+00 0.000000e+00 0.000000e+00
1
Step 215000
Ar 1.059029e+00 0.000000e+00 0.000000e+00
1
Step 216000
Ar 1.108830e+00 0.000000e+00 0.000000e+00
1
Step 217000
Ar 1.052560e+00 0.000000e+00 0.000000e+00
1
Step 218000
Ar 9.738407e-01 0.000000e+00 0.000000e+00
1
Step 219000
Ar 9.569622e-01 0.000000e+00 0.000000e+00
1
Step 220000
Ar 1.014356e+00 0.000000e+00 0.000000e+00
1
Step 221000
Ar 1.116580e+00 0.000000e+00 0.000000e+00
1
Step 222000
Ar 9.565207e-01 0.000000e+00 0.000000e+00
1
Step 223000
Ar 8.779608e-01 0.000000e+00 0.000000e+00
1
Step 224000
Ar 7.896658e-01 0.000000e+00 0.000000e+00
1
Step 225000
Ar 9.542356e-01 0.000000e+00 0.000000e+00
1
Step 226000
Ar 9.944548e-01 0.000000e+00 0.000000e+00
1
Step 227000
Ar 1.050670e+00 0.000000e+00 0.000000e+00
1
Step 228000
Ar 1.091180e+00 0.000000e+00 0.000000e+00
1
Step 229000
Ar 1.009043e+00 0.000000e+00 0.000000e+00
1
Step 230000
Ar 9.981988e-01 0.000000e+00 0.000000e+00
1
Step 231000
Ar 1.082654e+00 0.000000e+00 0.000000e+00
1
Step 232000
Ar 1.022238e+00 0.000000e+00 0.000000e+00
1
Step 233000
Ar 1.008459e+00 0.000000e+00 0.000000e+00
1
Step 234000
Ar 9.312064e-01 0.000000e+00 0.000000e+00
1
Step 235000
Ar 9.277750e-01 0.000000e+00 0.000000e+00
1
Step 236000
Ar 9.385985e-01 0.000000e+00 0.000000e+00
1
Step 237000
Ar 1.019509e+00 0.000000e+00 0.000000e+00
1
Step 238000
Ar 9.085114e-01 0.000000e+00 0.000000e+00
1
Step 239000
Ar 1.156372e+00 0.000000e+00 0.000000e+00
1
Step 240000
Ar 9.254085e-01 0.000000e+00 0.000000e+00
1
Step 241000
Ar 8.553281e-01 0.000000e+00 0.000000e+00
1
Step 242000
Ar 9.847567e-01 0.000000e+00 0.000000e+00
1
Step 243000
Ar 9.689013e-01 0.000000e+00 0.000000e+00
1
Step 244000
Ar 9.493264e-01 0.000000e+00 0.000000e+00
1
Step 245000
Ar 1.184091e+00 0.000000e+00 0.000000e+00
1
Step 246000
Ar 1.133424e+00 0.000000e+00 0.000000e+00
1
Step 247000
Ar 1.132722e+00 0.000000e+00 0.000000e+00
1
Step 248000
Ar 1.002718e+00 0.000000e+00 0.000000e+00
1
Step 249000
Ar 7.944495e-01 0.000000e+00 0.000000e+00
1
Step 250000
Ar 1.121403e+00 0.000000e+00 0.000000e+00
1
Step 251000
Ar 1.156146e+00 0.000000e+00 0.000000e+00
1
Step 252000
Ar 9.405235e-01 0.000000e+00 0.000000e+00
1
Step 253000
Ar 8.850630e-01 0.000000e+00 0.000000e+00
1
Step 254000
Ar 8.739064e-01 0.000000e+00 0.000000e+00
1
Step 255000
Ar 8.462597e-01 0.000000e+00 0.000000e+00
1
Step 256000
Ar 8.191723e-01 0.000000e+00 0.000000e+00
1
Step 257000
Ar 9.315798e-01 0.000000e+00 0.000000e+00
1
Step 258000
Ar 7.291416e-01 0.000000e+00 0.000000e+00
1
Step 259000
Ar 1.171412e+00 0.000000e+00 0.000000e+00
1
Step 260000
Ar 9.392635e-01 0.000000e+00 0.000000e+00
1
Step 261000
Ar 7.817459e-01 0.000000e+00 0.000000e+00
1
Step 262000
Ar 1.002680e+00 0.000000e+00 0.000000e+00
1
Step 263000
Ar 9.436951e-01 0.000000e+00 0.000000e+00
1
Step 264000
Ar 1.012543e+00 0.000000e+00 0.000000e+00
1
Step 265000
Ar 1.099666e+00 0.000000e+00 0.000000e+00
1
Step 266000
Ar 1.043949e+00 0.000000e+00 0.000000e+00
1
Step 267000
Ar 8.604240e-01 0.000000e+00 0.000000e+00
1
Step 268000
Ar 1.014879e+00 0.000000e+00 0.000000e+00
1
Step 269000
Ar 1.109005e+00 0.000000e+00 0.000000e+00
1
Step 270000
Ar 9.092423e-01 0.000000e+00 0.000000e+00
1
Step 271000
Ar 9.533089e-01 0.000000e+00 0.000000e+00
1
Step 272000
Ar 8.299368e-01 0.000000e+00 0.000000e+00
1
Step 273000
Ar 9.989065e-01 0.000000e+00 0.000000e+00
1
Step 274000
Ar 1.080666e+00 0.000000e+00 0.000000e+00
1
Step 275000
Ar 1.173458e+00 0.000000e+00 0.000000e+00
1
Step 276000
Ar 1.095517e+00 0.000000e+00 0.000000e+00
1
Step 277000
Ar 1.069722e+00 0.000000e+00 0.000000e+00
1
Step 278000
Ar 9.592908e-01 0.000000e+00 0.000000e+00
1
Step 279000
Ar 7.685002e-01 0.000000e+00 0.000000e+00
1
Step 280000
Ar 9.290348e-01 0.000000e+00 0.000000e+00
1
Step 281000
Ar 1.150103e+00 0.000000e+00 0.000000e+00
1
Step 282000
Ar 9.559782e-01 0.000000e+00 0.000000e+00
1
Step 283000
Ar 1.036041e+00 0.000000e+00 0.000000e+00
1
Step 284000
Ar 8.989807e-01 0.000000e+00 0.000000e+00
1
Step 285000
Ar 9.317554e-01 0.000000e+00 0.000000e+00
1
Step 286000
Ar 1.107651e+00 0.000000e+00 0.000000e+00
1
Step 287000
Ar 9.613409e-01 0.000000e+00 0.000000e+00
1
Step 288000
Ar 1.105945e+00 0.000000e+00 0.000000e+00
1
Step 289000
Ar 1.050745e+00 0.000000e+00 0.000000e+00
1
Step 290000
Ar 1.090179e+00 0.000000e+00 0.000000e+00
1
Step 291000
Ar 8.012785e-01 0.000000e+00 0.000000e+00
1
Step 292000
Ar 9.094566e-01 0.000000e+00 0.000000e+00
1
Step 293000
Ar 9.503830e-01 0.000000e+00 0.000000e+00
1
Step 294000
Ar 1.050812e+00 0.000000e+00 0.000000e+00
1
Step 295000
Ar 9.256808e-01 0.000000e+00 0.000000e+00
1
Step 296000
Ar 1.189888e+00 0.000000e+00 0.000000e+00
1
Step 297000
Ar 1.042955e+00 0.000000e+00 0.000000e+00
1
Step 298000
Ar 1.115684e+00 0.000000e+00 0.000000e+00
1
Step 299000
Ar 9.843805e-01 0.000000e+00 0.000000e+00
1
Step 300000
Ar 9.846862e-01 0.000000e+00 0.000000e+00
1
Step 301000
Ar 8.225351e-01 0.000000e+00 0.000000e+00
1
Step 302000
Ar 9.659147e-01 0.000000e+00 0.000000e+00
1
Step 303000
Ar 1.033665e+00 0.000000e+00 0.000000e+00
1
Step 304000
Ar 1.014459e+00 0.000000e+00 0.000000e+00
1
Step 305000
Ar 8.359840e-01 0.000000e+00 0.000000e+00
1
Step 306000
Ar 1.147257e+00 0.000000e+00 0.000000e+00
1
Step 307000
Ar 1.004864e+00 0.000000e+00 0.000000e+00
1
Step 308000
Ar 9.699799e-01 0.000000e+00 0.000000e+00
1
Step 309000
Ar 1.085615e+00 0.000000e+00 0.000000e+00
1
Step 310000
Ar 8.995602e-01 0.000000e+00 0.000000e+00
1
Step 311000
Ar 1.058493e+00 0.000000e+00 0.000000e+00
1
Step 312000
Ar 8.877671e-01 0.000000e+00 0.000000e+00
1
Step 313000
Ar 8.689718e-01 0.000000e+00 0.000000e+00
1
Step 314000
Ar 1.045899e+00 0.000000e+00 0.000000e+00
1
Step 315000
Ar 8.915504e-01 0.000000e+00 0.000000e+00
1
Step 316000
Ar 9.064204e-01 0.000000e+00 0.000000e+00
1
Step 317000
Ar 8.046098e-01 0.000000e+00 0.000000e+00
1
Step 318000
Ar 1.101163e+00 0.000000e+00 0.000000e+00
1
Step 319000
Ar 1.091342e+00 0.000000e+00 0.000000e+00
1
Step 320000
Ar 1.022155e+00 0.000000e+00 0.000000e+00
1
Step 321000
Ar 8.793530e-01 0.000000e+00 0.000000e+00
1
Step 322000
Ar 9.730490e-01 0.000000e+00 0.000000e+00
1
Step 323000
Ar 1.008994e+00 0.000000e+00 0.000000e+00
1
Step 324000
Ar 9.024994e-01 0.000000e+00 0.000000e+00
1
Step 325000
Ar 1.104964e+00 0.000000e+00 0.000000e+00
1
Step 326000
Ar 8.831564e-01 0.000000e+00 0.000000e+00
1
Step 327000
Ar 1.164498e+00 0.000000e+00 0.000000e+00
1
Step 328000
Ar 8.964673e-01 0.000000e+00 0.000000e+00
1
Step 329000
Ar 1.165975e+00 0.000000e+00 0.000000e+00
1
Step 330000
Ar 9.724671e-01 0.000000e+00 0.000000e+00
1
Step 331000
Ar 1.164103e+00 0.000000e+00 0.000000e+00
1
Step 332000
Ar 9.527149e-01 0.000000e+00 0.000000e+00
1
Step 333000
Ar 9.146657e-01 0.000000e+00 0.000000e+00
1
Step 334000
Ar 1.137226e+00 0.000000e+00 0.000000e+00
1
Step 335000
Ar 9.306745e-01 0.000000e+00 0.000000e+00
1
Step 336000
Ar 1.021405e+00 0.000000e+00 0.000000e+00
1
Step 337000
Ar 9.390299e-01 0.000000e+00 0.000000e+00
1
Step 338000
Ar 1.009341e+00 0.000000e+00 0.000000e+00
1
Step 339000
Ar 8.728674e-01 0.000000e+00 0.000000e+00
1
Step 340000
Ar 1.327521e+00 0.000000e+00 0.000000e+00
1
Step 341000
Ar 1.071739e+00 0.000000e+00 0.000000e+00
1
Step 342000
Ar 1.083849e+00 0.000000e+00 0.000000e+00
1
Step 343000
Ar 9.126237e-01 0.000000e+00 0.000000e+00
1
Step 344000
Ar 1.048827e+00 0.000000e+00 0.000000e+00
1
Step 345000
Ar 8.555684e-01 0.000000e+00 0.000000e+00
1
Step 346000
Ar 9.949361e-01 0.000000e+00 0.000000e+00
1
Step 347000
Ar 8.192334e-01 0.000000e+00 0.000000e+00
1
Step 348000
Ar 1.087937e+00 0.000000e+00 0.000000e+00
1
Step 349000
Ar 1.001979e+00 0.000000e+00 0.000000e+00
1
Step 350000
Ar 1.083276e+00 0.000000e+00 0.000000e+00
1
Step 351000
Ar 8.617164e-01 0.000000e+00 0.000000e+00
1
Step 352000
Ar 8.553708e-01 0.000000e+00 0.000000e+00
1
Step 353000
Ar 1.054205e+00 0.000000e+00 0.000000e+00
1
Step 354000
Ar 1.089599e+00 0.000000e+00 0.000000e+00
1
Step 355000
Ar 1.164299e+00 0.000000e+00 0.000000e+00
1
Step 356000
Ar 8.236441e-01 0.000000e+00 0.000000e+00
1
Step 357000
Ar 1.014196e+00 0.000000e+00 0.000000e+00
1
Step 358000
Ar 8.094819e-01 0.000000e+00 0.000000e+00
1
Step 359000
Ar 1.117721e+00 0.000000e+00 0.000000e+00
1
Step 360000
Ar 1.036162e+00 0.000000e+00 0.000000e+00
1
Step 361000
Ar 1.049750e+00 0.000000e+00 0.000000e+00
1
Step 362000
Ar 1.113942e+00 0.000000e+00 0.000000e+00
1
Step 363000
Ar 7.499372e-01 0.000000e+00 0.000000e+00
1
Step 364000
Ar 9.726395e-01 0.000000e+00 0.000000e+00
1
Step 365000
Ar 9.933594e-01 0.000000e+00 0.000000e+00
1
Step 366000
Ar 1.008924e+00 0.000000e+00 0.000000e+00
1
Step 367000
Ar 9.035487e-01 0.000000e+00 0.000000e+00
1
Step 368000
Ar 7.787921e-01 0.000000e+00 0.000000e+00
1
Step 369000
Ar 9.637716e-01 0.000000e+00 0.000000e+00
1
Step 370000
Ar 9.250667e-01 0.000000e+00 0.000000e+00
1
Step 371000
Ar 1.086866e+00 0.000000e+00 0.000000e+00
1
Step 372000
Ar 1.026639e+00 0.000000e+00 0.000000e+00
1
Step 373000
Ar 1.068901e+00 0.000000e+00 0.000000e+00
1
Step 374000
Ar 1.028599e+00 0.000000e+00 0.000000e+00
1
Step 375000
Ar 1.031578e+00 0.000000e+00 0.000000e+00
1
Step 376000
Ar 1.030126e+00 0.000000e+00 0.000000e+00
1
Step 377000
Ar 1.082842e+00 0.000000e+00 0.000000e+00
1
Step 378000
Ar 7.769465e-01 0.000000e+00 0.000000e+00
1
Step 379000
Ar 1.087389e+00 0.000000e+00 0.000000e+00
1
Step 380000
Ar 9.790237e-01 0.000000e+00 0.000000e+00
1
Step 381000
Ar 8.770587e-01 0.000000e+00 0.000000e+00
1
Step 382000
Ar 1.108178e+00 0.000000e+00 0.000000e+00
1
Step 383000
Ar 1.179385e+00 0.000000e+00 0.000000e+00
1
Step 384000
Ar 7.307218e-01 0.000000e+00 0.000000e+00
1
Step 385000
Ar 7.384120e-01 0.000000e+00 0.000000e+00
1
Step 386000
Ar 1.014195e+00 0.000000e+00 0.000000e+00
1
Step 387000
Ar 1.061217e+00 0.000000e+00 0.000000e+00
1
Step 388000
Ar 9.737483e-01 0.000000e+00 0.000000e+00
1
Step 389000
Ar 7.169927e-01 0.000000e+00 0.000000e+00
1
Step 390000
Ar 9.830269e-01 0.000000e+00 0.000000e+00
1
Step 391000
Ar 8.568904e-01 0.000000e+00 0.000000e+00
1
Step 392000
Ar 1.015822e+00 0.000000e+00 0.000000e+00
1
Step 393000
Ar 9.206668e-01 0.000000e+00 0.000000e+00
1
Step 394000
Ar 1.041185e+00 0.000000e+00 0.000000e+00
1
Step 395000
Ar 1.028286e+00 0.000000e+00 0.000000e+00
1
Step 396000
Ar 9.926463e-01 0.000000e+00 0.000000e+00
1
Step 397000
Ar 9.627003e-01 0.000000e+00 0.000000e+00
1
Step 398000
Ar 1.015780e+00 0.000000e+00 0.000000e+00
1
Step 399000
Ar 1.097345e+00 0.000000e+00 0.000000e+00
1
Step 400000
Ar 1.085659e+00 0.000000e+00 0.000000e+00
1
Step 401000
Ar 9.823667e-01 0.000000e+00 0.000000e+00
1
Step 402000
Ar 8.888104e-01 0.000000e+00 0.000000e+00
1
Step 403000
Ar 1.079759e+00 0.000000e+00 0.000000e+00
1
Step 404000
Ar 8.447292e-01 0.000000e+00 0.000000e+00
1
Step 405000
Ar 9.627312e-01 0.000000e+00 0.000000e+00
1
Step 406000
Ar 9.784914e-01 0.000000e+00 0.000000e+00
1
Step 407000
Ar 1.144054e+00 0.000000e+00 0.000000e+00
1
Step 408000
Ar 1.129089e+00 0.000000e+00 0.000000e+00
1
Step 409000
Ar 1.039762e+00 0.000000e+00 0.000000e+00
1
Step 410000
Ar 9.640702e-01 0.000000e+00 0.000000e+00
1
Step 411000
Ar 9.443852e-01 0.000000e+00 0.000000e+00
1
Step 412000
Ar 9.971730e-01 0.000000e+00 0.000000e+00
1
Step 413000
Ar 1.032890e+00 0.000000e+00 0.000000e+00
1
Step 414000
Ar 1.145643e+00 0.000000e+00 0.000000e+00
1
Step 415000
Ar 9.063032e-01 0.000000e+00 0.000000e+00
1
Step 416000
Ar 9.480684e-01 0.000000e+00 0.000000e+00
1
Step 417000
Ar 8.877248e-01 0.000000e+00 0.000000e+00
1
Step 418000
Ar 1.035140e+00 0.000000e+00 0.000000e+00
1
Step 419000
Ar 8.249702e-01 0.000000e+00 0.000000e+00
1
Step 420000
Ar 9.282984e-01 0.000000e+00 0.000000e+00
1
Step 421000
Ar 1.181450e+00 0.000000e+00 0.000000e+00
1
Step 422000
Ar 1.072524e+00 0.000000e+00 0.000000e+00
1
Step 423000
Ar 1.033902e+00 0.000000e+00 0.000000e+00
1
Step 424000
Ar 9.922381e-01 0.000000e+00 0.000000e+00
1
Step 425000
Ar 1.011271e+00 0.000000e+00 0.000000e+00
1
Step 426000
Ar 6.535646e-01 0.000000e+00 0.000000e+00
1
Step 427000
Ar 9.194141e-01 0.000000e+00 0.000000e+00
1
Step 428000
Ar 8.731851e-01 0.000000e+00 0.000000e+00
1
Step 429000
Ar 1.021351e+00 0.000000e+00 0.000000e+00
1
Step 430000
Ar 1.010309e+00 0.000000e+00 0.000000e+00
1
Step 431000
Ar 9.341180e-01 0.000000e+00 0.000000e+00
1
Step 432000
Ar 1.037125e+00 0.000000e+00 0.000000e+00
1
Step 433000
Ar 1.051109e+00 0.000000e+00 0.000000e+00
1
Step 434000
Ar 9.692551e-01 0.000000e+00 0.000000e+00
1
Step 435000
Ar 1.038841e+00 0.000000e+00 0.000000e+00
1
Step 436000
Ar 1.023007e+00 0.000000e+00 0.000000e+00
1
Step 437000
Ar 1.133932e+00 0.000000e+00 0.000000e+00
1
Step 438000
Ar 1.052739e+00 0.000000e+00 0.000000e+00
1
Step 439000
Ar 1.048424e+00 0.000000e+00 0.000000e+00
1
Step 440000
Ar 9.078110e-01 0.000000e+00 0.000000e+00
1
Step 441000
Ar 9.506698e-01 0.000000e+00 0.000000e+00
1
Step 442000
Ar 9.935368e-01 0.000000e+00 0.000000e+00
1
Step 443000
Ar 7.851046e-01 0.000000e+00 0.000000e+00
1
Step 444000
Ar 9.875686e-01 0.000000e+00 0.000000e+00
1
Step 445000
Ar 1.004435e+00 0.000000e+00 0.000000e+00
1
Step 446000
Ar 1.001723e+00 0.000000e+00 0.000000e+00
1
Step 447000
Ar 1.087438e+00 0.000000e+00 0.000000e+00
1
Step 448000
Ar 1.073235e+00 0.000000e+00 0.000000e+00
1
Step 449000
Ar 8.884510e-01 0.000000e+00 0.000000e+00
1
Step 450000
Ar 1.005040e+00 0.000000e+00 0.000000e+00
1
Step 451000
Ar 9.782585e-01 0.000000e+00 0.000000e+00
1
Step 452000
Ar 9.777449e-01 0.000000e+00 0.000000e+00
1
Step 453000
Ar 7.940000e-01 0.000000e+00 0.000000e+00
1
Step 454000
Ar 9.264550e-01 0.000000e+00 0.000000e+00
1
Step 455000
Ar 1.096873e+00 0.000000e+00 0.000000e+00
1
Step 456000
Ar 9.361060e-01 0.000000e+00 0.000000e+00
1
Step 457000
Ar 1.177665e+00 0.000000e+00 0.000000e+00
1
Step 458000
Ar 1.091990e+00 0.000000e+00 0.000000e+00
1
Step 459000
Ar 8.556047e-01 0.000000e+00 0.000000e+00
1
Step 460000
Ar 1.063938e+00 0.000000e+00 0.000000e+00
1
Step 461000
Ar 9.657548e-01 0.000000e+00 0.000000e+00
1
Step 462000
Ar 9.819768e-01 0.000000e+00 0.000000e+00
1
Step 463000
Ar 9.715237e-01 0.000000e+00 0.000000e+00
1
Step 464000
Ar 9.325271e-01 0.000000e+00 0.000000e+00
1
Step 465000
Ar 9.696024e-01 0.000000e+00 0.000000e+00
1
Step 466000
Ar 8.958108e-01 0.000000e+00 0.000000e+00
1
Step 467000
Ar 8.844131e-01 0.000000e+00 0.000000e+00
1
Step 468000
Ar 1.101318e+00 0.000000e+00 0.000000e+00
1
Step 469000
Ar 9.854189e-01 0.000000e+00 0.000000e+00
1
Step 470000
Ar 1.012306e+00 0.000000e+00 0.000000e+00
1
Step 471000
Ar 1.009956e+00 0.000000e+00 0.000000e+00
1
Step 472000
Ar 9.811078e-01 0.000000e+00 0.000000e+00
1
Step 473000
Ar 8.805927e-01 0.000000e+00 0.000000e+00
1
Step 474000
Ar 1.034532e+00 0.000000e+00 0.000000e+00
1
Step 475000
Ar 7.598993e-01 0.000000e+00 0.000000e+00
1
Step 476000
Ar 1.008358e+00 0.000000e+00 0.000000e+00
1
Step 477000
Ar 1.186597e+00 0.000000e+00 0.000000e+00
1
Step 478000
Ar 9.933017e-01 0.000000e+00 0.000000e+00
1
Step 479000
Ar 1.108745e+00 0.000000e+00 0.000000e+00
1
Step 480000
Ar 1.049611e+00 0.000000e+00 0.000000e+00
1
Step 481000
Ar 6.826463e-01 0.000000e+00 0.000000e+00
1
Step 482000
Ar 9.855243e-01 0.000000e+00 0.000000e+00
1
Step 483000
Ar 9.965287e-01 0.000000e+00 0.000000e+00
1
Step 484000
Ar 1.031901e+00 0.000000e+00 0.000000e+00
1
Step 485000
Ar 8.882594e-01 0.000000e+00 0.000000e+00
1
Step 486000
Ar 1.030304e+00 0.000000e+00 0.000000e+00
1
Step 487000
Ar 7.502672e-01 0.000000e+00 0.000000e+00
1
Step 488000
Ar 1.037931e+00 0.000000e+00 0.000000e+00
1
Step 489000
Ar 8.192100e-01 0.000000e+00 0.000000e+00
1
Step 490000
Ar 1.068187e+00 0.000000e+00 0.000000e+00
1
Step 491000
Ar 9.697169e-01 0.000000e+00 0.000000e+00
1
Step 492000
Ar 9.149094e-01 0.000000e+00 0.000000e+00
1
Step 493000
Ar 7.321668e-01 0.000000e+00 0.000000e+00
1
Step 494000
Ar 1.149676e+00 0.000000e+00 0.000000e+00
1
Step 495000
Ar 1.146430e+00 0.000000e+00 0.000000e+00
1
Step 496000
Ar 1.012034e+00 0.000000e+00 0.000000e+00
1
Step 497000
Ar 9.690380e-01 0.000000e+00 0.000000e+00
1
Step 498000
Ar 1.079216e+00 0.000000e+00 0.000000e+00
1
Step 499000
Ar 8.622460e-01 0.000000e+00 0.000000e+00
1
Step 500000
Ar 1.124238e+00 0.000000e+00 0.000000e+00
1
Step 501000
Ar 1.189143e+00 0.000000e+00 0.000000e+00
1
Step 502000
Ar 9.129240e-01 0.000000e+00 0.000000e+00
1
Step 503000
Ar 9.443079e-01 0.000000e+00 0.000000e+00
1
Step 504000
Ar 9.532969e-01 0.000000e+00 0.000000e+00
1
Step 505000
Ar 1.119426e+00 0.000000e+00 0.000000e+00
1
Step 506000
Ar 9.956717e-01 0.000000e+00 0.000000e+00
1
Step 507000
Ar 9.289863e-01 0.000000e+00 0.000000e+00
1
Step 508000
Ar 9.705329e-01 0.000000e+00 0.000000e+00
1
Step 509000
Ar 1.061936e+00 0.000000e+00 0.000000e+00
1
Step 510000
Ar 9.181385e-01 0.000000e+00 0.000000e+00
1
Step 511000
Ar 9.016181e-01 0.000000e+00 0.000000e+00
1
Step 512000
Ar 1.051846e+00 0.000000e+00 0.000000e+00
1
Step 513000
Ar 1.022803e+00 0.000000e+00 0.000000e+00
1
Step 514000
Ar 1.117068e+00 0.000000e+00 0.000000e+00
1
Step 515000
Ar 9.427910e-01 0.000000e+00 0.000000e+00
1
Step 516000
Ar 9.523170e-01 0.000000e+00 0.000000e+00
1
Step 517000
Ar 1.120702e+00 0.000000e+00 0.000000e+00
1
Step 518000
Ar 9.617962e-01 0.000000e+00 0.000000e+00
1
Step 519000
Ar 1.070089e+00 0.000000e+00 0.000000e+00
1
Step 520000
Ar 9.009975e-01 0.000000e+00 0.000000e+00
1
Step 521000
Ar 1.071232e+00 0.000000e+00 0.000000e+00
1
Step 522000
Ar 9.105150e-01 0.000000e+00 0.000000e+00
1
Step 523000
Ar 1.063483e+00 0.000000e+00 0.000000e+00
1
Step 524000
Ar 9.941946e-01 0.000000e+00 0.000000e+00
1
Step 525000
Ar 1.244386e+00 0.000000e+00 0.000000e+00
1
Step 526000
Ar 9.082371e-01 0.000000e+00 0.000000e+00
1
Step 527000
Ar 1.134906e+00 0.000000e+00 0.000000e+00
1
Step 528000
Ar 1.000679e+00 0.000000e+00 0.000000e+00
1
Step 529000
Ar 1.201018e+00 0.000000e+00 0.000000e+00
1
Step 530000
Ar 8.611576e-01 0.000000e+00 0.000000e+00
1
Step 531000
Ar 9.367402e-01 0.000000e+00 0.000000e+00
1
Step 532000
Ar 1.129490e+00 0.000000e+00 0.000000e+00
1
Step 533000
Ar 1.114656e+00 0.000000e+00 0.000000e+00
1
Step 534000
Ar 8.839642e-01 0.000000e+00 0.000000e+00
1
Step 535000
Ar 1.237273e+00 0.000000e+00 0.000000e+00
1
Step 536000
Ar 8.950270e-01 0.000000e+00 0.000000e+00
1
Step 537000
Ar 1.036074e+00 0.000000e+00 0.000000e+00
1
Step 538000
Ar 1.167008e+00 0.000000e+00 0.000000e+00
1
Step 539000
Ar 9.293622e-01 0.000000e+00 0.000000e+00
1
Step 540000
Ar 8.718034e-01 0.000000e+00 0.000000e+00
1
Step 541000
Ar 1.079186e+00 0.000000e+00 0.000000e+00
1
Step 542000
Ar 1.114689e+00 0.000000e+00 0.000000e+00
1
Step 543000
Ar 8.952183e-01 0.000000e+00 0.000000e+00
1
Step 544000
Ar 9.787066e-01 0.000000e+00 0.000000e+00
1
Step 545000
Ar 9.052125e-01 0.000000e+00 0.000000e+00
1
Step 546000
Ar 1.095482e+00 0.000000e+00 0.000000e+00
1
Step 547000
Ar 9.896473e-01 0.000000e+00 0.000000e+00
1
Step 548000
Ar 1.110896e+00 0.000000e+00 0.000000e+00
1
Step 549000
Ar 9.990455e-01 0.000000e+00 0.000000e+00
1
Step 550000
Ar 8.082306e-01 0.000000e+00 0.000000e+00
1
Step 551000
Ar 9.820319e-01 0.000000e+00 0.000000e+00
1
Step 552000
Ar 1.071520e+00 0.000000e+00 0.000000e+00
1
Step 553000
Ar 1.040533e+00 0.000000e+00 0.000000e+00
1
Step 554000
Ar 8.578878e-01 0.000000e+00 0.000000e+00
1
Step 555000
Ar 9.051960e-01 0.000000e+00 0.000000e+00
1
Step 556000
Ar 1.050393e+00 0.000000e+00 0.000000e+00
1
Step 557000
Ar 1.066277e+00 0.000000e+00 0.000000e+00
1
Step 558000
Ar 1.041077e+00 0.000000e+00 0.000000e+00
1
Step 559000
Ar 9.808461e-01 0.000000e+00 0.000000e+00
1
Step 560000
Ar 1.030422e+00 0.000000e+00 0.000000e+00
1
Step 561000
Ar 8.462868e-01 0.000000e+00 0.000000e+00
1
Step 562000
Ar 9.624145e-01 0.000000e+00 0.000000e+00
1
Step 563000
Ar 1.089328e+00 0.000000e+00 0.000000e+00
1
Step 564000
Ar 1.081624e+00 0.000000e+00 0.000000e+00
1
Step 565000
Ar 9.421753e-01 0.000000e+00 0.000000e+00
1
Step 566000
Ar 9.820549e-01 0.000000e+00 0.000000e+00
1
Step 567000
Ar 1.058343e+00 0.000000e+00 0.000000e+00
1
Step 568000
Ar 8.657840e-01 0.000000e+00 0.000000e+00
1
Step 569000
Ar 9.088005e-01 0.000000e+00 0.000000e+00
1
Step 570000
Ar 9.113740e-01 0.000000e+00 0.000000e+00
1
Step 571000
Ar 1.104039e+00 0.000000e+00 0.000000e+00
1
Step 572000
Ar 1.138417e+00 0.000000e+00 0.000000e+00
1
Step 573000
Ar 9.109394e-01 0.000000e+00 0.000000e+00
1
Step 574000
Ar 7.740356e-01 0.000000e+00 0.000000e+00
1
Step 575000
Ar 8.911465e-01 0.000000e+00 0.000000e+00
1
Step 576000
Ar 1.118681e+00 0.000000e+00 0.000000e+00
1
Step 577000
Ar 9.673643e-01 0.000000e+00 0.000000e+00
1
Step 578000
Ar 9.668856e-01 0.000000e+00 0.000000e+00
1
Step 579000
Ar 1.054637e+00 0.000000e+00 0.000000e+00
1
Step 580000
Ar 9.169005e-01 0.000000e+00 0.000000e+00
1
Step 581000
Ar 9.412746e-01 0.000000e+00 0.000000e+00
1
Step 582000
Ar 9.533120e-01 0.000000e+00 0.000000e+00
1
Step 583000
Ar 9.312391e-01 0.000000e+00 0.000000e+00
1
Step 584000
Ar 1.037895e+00 0.000000e+00 0.000000e+00
1
Step 585000
Ar 9.531604e-01 0.000000e+00 0.000000e+00
1
Step 586000
Ar 9.507082e-01 0.000000e+00 0.000000e+00
1
Step 587000
Ar 1.195379e+00 0.000000e+00 0.000000e+00
1
Step 588000
Ar 7.881861e-01 0.000000e+00 0.000000e+00
1
Step 589000
Ar 9.219919e-01 0.000000e+00 0.000000e+00
1
Step 590000
Ar 1.016488e+00 0.000000e+00 0.000000e+00
1
Step 591000
Ar 8.390856e-01 0.000000e+00 0.000000e+00
1
Step 592000
Ar 1.064602e+00 0.000000e+00 0.000000e+00
1
Step 593000
Ar 8.918754e-01 0.000000e+00 0.000000e+00
1
Step 594000
Ar 9.763564e-01 0.000000e+00 0.000000e+00
1
Step 595000
Ar 9.718923e-01 0.000000e+00 0.000000e+00
1
Step 596000
Ar 1.115019e+00 0.000000e+00 0.000000e+00
1
Step 597000
Ar 9.164040e-01 0.000000e+00 0.000000e+00
1
Step 598000
Ar 1.101101e+00 0.000000e+00 0.000000e+00
1
Step 599000
Ar 9.879181e-01 0.000000e+00 0.000000e+00
1
Step 600000
Ar 8.539595e-01 0.000000e+00 0.000000e+00
1
Step 601000
Ar 1.168475e+00 0.000000e+00 0.000000e+00
1
Step 602000
Ar 1.044372e+00 0.000000e+00 0.000000e+00
1
Step 603000
Ar 9.688607e-01 0.000000e+00 0.000000e+00
1
Step 604000
Ar 7.414141e-01 0.000000e+00 0.000000e+00
1
Step 605000
Ar 1.130570e+00 0.000000e+00 0.000000e+00
1
Step 606000
Ar 9.291181e-01 0.000000e+00 0.000000e+00
1
Step 607000
Ar 9.737084e-01 0.000000e+00 0.000000e+00
1
Step 608000
Ar 1.036333e+00 0.000000e+00 0.000000e+00
1
Step 609000
Ar 9.421591e-01 0.000000e+00 0.000000e+00
1
Step 610000
Ar 9.449398e-01 0.000000e+00 0.000000e+00
1
Step 611000
Ar 1.103285e+00 0.000000e+00 0.000000e+00
1
Step 612000
Ar 1.047572e+00 0.000000e+00 0.000000e+00
1
Step 613000
Ar 1.007847e+00 0.000000e+00 0.000000e+00
1
Step 614000
Ar 1.068589e+00 0.000000e+00 0.000000e+00
1
Step 615000
Ar 1.141585e+00 0.000000e+00 0.000000e+00
1
Step 616000
Ar 8.309476e-01 0.000000e+00 0.000000e+00
1
Step 617000
Ar 1.061800e+00 0.000000e+00 0.000000e+00
1
Step 618000
Ar 9.307789e-01 0.000000e+00 0.000000e+00
1
Step 619000
Ar 1.239540e+00 0.000000e+00 0.000000e+00
1
Step 620000
Ar 9.216961e-01 0.000000e+00 0.000000e+00
1
Step 621000
Ar 1.073671e+00 0.000000e+00 0.000000e+00
1
Step 622000
Ar 1.043149e+00 0.000000e+00 0.000000e+00
1
Step 623000
Ar 1.138670e+00 0.000000e+00 0.000000e+00
1
Step 624000
Ar 1.126691e+00 0.000000e+00 0.000000e+00
1
Step 625000
Ar 1.039146e+00 0.000000e+00 0.000000e+00
1
Step 626000
Ar 1.018072e+00 0.000000e+00 0.000000e+00
1
Step 627000
Ar 1.074734e+00 0.000000e+00 0.000000e+00
1
Step 628000
Ar 1.061021e+00 0.000000e+00 0.000000e+00
1
Step 629000
Ar 1.084273e+00 0.000000e+00 0.000000e+00
1
Step 630000
Ar 1.075246e+00 0.000000e+00 0.000000e+00
1
Step 631000
Ar 1.195775e+00 0.000000e+00 0.000000e+00
1
Step 632000
Ar 9.736302e-01 0.000000e+00 0.000000e+00
1
Step 633000
Ar 1.008373e+00 0.000000e+00 0.000000e+00
1
Step 634000
Ar 9.595073e-01 0.000000e+00 0.000000e+00
1
Step 635000
Ar 1.036014e+00 0.000000e+00 0.000000e+00
1
Step 636000
Ar 9.830576e-01 0.000000e+00 0.000000e+00
1
Step 637000
Ar 9.430061e-01 0.000000e+00 0.000000e+00
1
Step 638000
Ar 9.381529e-01 0.000000e+00 0.000000e+00
1
Step 639000
Ar 1.024783e+00 0.000000e+00 0.000000e+00
1
Step 640000
Ar 1.020083e+00 0.000000e+00 0.000000e+00
1
Step 641000
Ar 9.490750e-01 0.000000e+00 0.000000e+00
1
Step 642000
Ar 1.047265e+00 0.000000e+00 0.000000e+00
1
Step 643000
Ar 1.053174e+00 0.000000e+00 0.000000e+00
1
Step 644000
Ar 9.845899e-01 0.000000e+00 0.000000e+00
1
Step 645000
Ar 9.527944e-01 0.000000e+00 0.000000e+00
1
Step 646000
Ar 1.030328e+00 0.000000e+00 0.000000e+00
1
Step 647000
Ar 1.037523e+00 0.000000e+00 0.000000e+00
1
Step 648000
Ar 9.861658e-01 0.000000e+00 0.000000e+00
1
Step 649000
Ar 1.150711e+00 0.000000e+00 0.000000e+00
1
Step 650000
Ar 9.853578e-01 0.000000e+00 0.000000e+00
1
Step 651000
Ar 1.087225e+00 0.000000e+00 0.000000e+00
1
Step 652000
Ar 9.790552e-01 0.000000e+00 0.000000e+00
1
Step 653000
Ar 1.062746e+00 0.000000e+00 0.000000e+00
1
Step 654000
Ar 1.035397e+00 0.000000e+00 0.000000e+00
1
Step 655000
Ar 1.006049e+00 0.000000e+00 0.000000e+00
1
Step 656000
Ar 9.322016e-01 0.000000e+00 0.000000e+00
1
Step 657000
Ar 1.051278e+00 0.000000e+00 0.000000e+00
1
Step 658000
Ar 9.846242e-01 0.000000e+00 0.000000e+00
1
Step 659000
Ar 9.452681e-01 0.000000e+00 0.000000e+00
1
Step 660000
Ar 9.521176e-01 0.000000e+00 0.000000e+00
1
Step 661000
Ar 1.006137e+00 0.000000e+00 0.000000e+00
1
Step 662000
Ar 9.470710e-01 0.000000e+00 0.000000e+00
1
Step 663000
Ar 1.262716e+00 0.000000e+00 0.000000e+00
1
Step 664000
Ar 1.201439e+00 0.000000e+00 0.000000e+00
1
Step 665000
Ar 1.043530e+00 0.000000e+00 0.000000e+00
1
Step 666000
Ar 9.957089e-01 0.000000e+00 0.000000e+00
1
Step 667000
Ar 1.086440e+00 0.000000e+00 0.000000e+00
1
Step 668000
Ar 9.988097e-01 0.000000e+00 0.000000e+00
1
Step 669000
Ar 1.004211e+00 0.000000e+00 0.000000e+00
1
Step 670000
Ar 1.008411e+00 0.000000e+00 0.000000e+00
1
Step 671000
Ar 9.691999e-01 0.000000e+00 0.000000e+00
1
Step 672000
Ar 9.475116e-01 0.000000e+00 0.000000e+00
1
Step 673000
Ar 9.610717e-01 0.000000e+00 0.000000e+00
1
Step 674000
Ar 1.031213e+00 0.000000e+00 0.000000e+00
1
Step 675000
Ar 1.018318e+00 0.000000e+00 0.000000e+00
1
Step 676000
Ar 9.892709e-01 0.000000e+00 0.000000e+00
1
Step 677000
Ar 9.886507e-01 0.000000e+00 0.000000e+00
1
Step 678000
Ar 1.068661e+00 0.000000e+00 0.000000e+00
1
Step 679000
Ar 1.015732e+00 0.000000e+00 0.000000e+00
1
Step 680000
Ar 1.041212e+00 0.000000e+00 0.000000e+00
1
Step 681000
Ar 1.250627e+00 0.000000e+00 0.000000e+00
1
Step 682000
Ar 1.139268e+00 0.000000e+00 0.000000e+00
1
Step 683000
Ar 1.085582e+00 0.000000e+00 0.000000e+00
1
Step 684000
Ar 1.023264e+00 0.000000e+00 0.000000e+00
1
Step 685000
Ar 1.058633e+00 0.000000e+00 0.000000e+00
1
Step 686000
Ar 1.169930e+00 0.000000e+00 0.000000e+00
1
Step 687000
Ar 1.010623e+00 0.000000e+00 0.000000e+00
1
Step 688000
Ar 9.774574e-01 0.000000e+00 0.000000e+00
1
Step 689000
Ar 1.037403e+00 0.000000e+00 0.000000e+00
1
Step 690000
Ar 1.003000e+00 0.000000e+00 0.000000e+00
1
Step 691000
Ar 9.755261e-01 0.000000e+00 0.000000e+00
1
Step 692000
Ar 1.023493e+00 0.000000e+00 0.000000e+00
1
Step 693000
Ar 9.940671e-01 0.000000e+00 0.000000e+00
1
Step 694000
Ar 1.042703e+00 0.000000e+00 0.000000e+00
1
Step 695000
Ar 1.126116e+00 0.000000e+00 0.000000e+00
1
Step 696000
Ar 9.955570e-01 0.000000e+00 0.000000e+00
1
Step 697000
Ar 1.041880e+00 0.000000e+00 0.000000e+00
1
Step 698000
Ar 1.001859e+00 0.000000e+00 0.000000e+00
1
Step 699000
Ar 1.005667e+00 0.000000e+00 0.000000e+00
1
Step 700000
Ar 1.102672e+00 0.000000e+00 0.000000e+00
1
Step 701000
Ar 9.891163e-01 0.000000e+00 0.000000e+00
1
Step 702000
Ar 1.059019e+00 0.000000e+00 0.000000e+00
1
Step 703000
Ar 1.110219e+00 0.000000e+00 0.000000e+00
1
Step 704000
Ar 1.052165e+00 0.000000e+00 0.000000e+00
1
Step 705000
Ar 1.166568e+00 0.000000e+00 0.000000e+00
1
Step 706000
Ar 9.609295e-01 0.000000e+00 0.000000e+00
1
Step 707000
Ar 1.125621e+00 0.000000e+00 0.000000e+00
1
Step 708000
Ar 1.095846e+00 0.000000e+00 0.000000e+00
1
Step 709000
Ar 1.147233e+00 0.000000e+00 0.000000e+00
1
Step 710000
Ar 1.225704e+00 0.000000e+00 0.000000e+00
1
Step 711000
Ar 9.660288e-01 0.000000e+00 0.000000e+00
1
Step 712000
Ar 9.483955e-01 0.000000e+00 0.000000e+00
1
Step 713000
Ar 1.144374e+00 0.000000e+00 0.000000e+00
1
Step 714000
Ar 1.000943e+00 0.000000e+00 0.000000e+00
1
Step 715000
Ar 9.603074e-01 0.000000e+00 0.000000e+00
1
Step 716000
Ar 1.286738e+00 0.000000e+00 0.000000e+00
1
Step 717000
Ar 1.154447e+00 0.000000e+00 0.000000e+00
1
Step 718000
Ar 1.014718e+00 0.000000e+00 0.000000e+00
1
Step 719000
Ar 1.083097e+00 0.000000e+00 0.000000e+00
1
Step 720000
Ar 1.029394e+00 0.000000e+00 0.000000e+00
1
Step 721000
Ar 1.038465e+00 0.000000e+00 0.000000e+00
1
Step 722000
Ar 9.422005e-01 0.000000e+00 0.000000e+00
1
Step 723000
Ar 1.002630e+00 0.000000e+00 0.000000e+00
1
Step 724000
Ar 9.657286e-01 0.000000e+00 0.000000e+00
1
Step 725000
Ar 1.104642e+00 0.000000e+00 0.000000e+00
1
Step 726000
Ar 9.485034e-01 0.000000e+00 0.000000e+00
1
Step 727000
Ar 9.457226e-01 0.000000e+00 0.000000e+00
1
Step 728000
Ar 9.988563e-01 0.000000e+00 0.000000e+00
1
Step 729000
Ar 1.098515e+00 0.000000e+00 0.000000e+00
1
Step 730000
Ar 1.074324e+00 0.000000e+00 0.000000e+00
1
Step 731000
Ar 9.626311e-01 0.000000e+00 0.000000e+00
1
Step 732000
Ar 9.376678e-01 0.000000e+00 0.000000e+00
1
Step 733000
Ar 1.164537e+00 0.000000e+00 0.000000e+00
1
Step 734000
Ar 1.019726e+00 0.000000e+00 0.000000e+00
1
Step 735000
Ar 1.020290e+00 0.000000e+00 0.000000e+00
1
Step 736000
Ar 1.017949e+00 0.000000e+00 0.000000e+00
1
Step 737000
Ar 9.897352e-01 0.000000e+00 0.000000e+00
1
Step 738000
Ar 9.577909e-01 0.000000e+00 0.000000e+00
1
Step 739000
Ar 1.029227e+00 0.000000e+00 0.000000e+00
1
Step 740000
Ar 9.850115e-01 0.000000e+00 0.000000e+00
1
Step 741000
Ar 1.099353e+00 0.000000e+00 0.000000e+00
1
Step 742000
Ar 1.041867e+00 0.000000e+00 0.000000e+00
1
Step 743000
Ar 1.174755e+00 0.000000e+00 0.000000e+00
1
Step 744000
Ar 1.244591e+00 0.000000e+00 0.000000e+00
1
Step 745000
Ar 1.012639e+00 0.000000e+00 0.000000e+00
1
Step 746000
Ar 1.074789e+00 0.000000e+00 0.000000e+00
1
Step 747000
Ar 1.112423e+00 0.000000e+00 0.000000e+00
1
Step 748000
Ar 1.081293e+00 0.000000e+00 0.000000e+00
1
Step 749000
Ar 1.097509e+00 0.000000e+00 0.000000e+00
1
Step 750000
Ar 9.978886e-01 0.000000e+00 0.000000e+00
1
Step 751000
Ar 1.004715e+00 0.000000e+00 0.000000e+00
1
Step 752000
Ar 1.035289e+00 0.000000e+00 0.000000e+00
1
Step 753000
Ar 1.124395e+00 0.000000e+00 0.000000e+00
1
Step 754000
Ar 1.113521e+00 0.000000e+00 0.000000e+00
1
Step 755000
Ar 1.203681e+00 0.000000e+00 0.000000e+00
1
Step 756000
Ar 9.855400e-01 0.000000e+00 0.000000e+00
1
Step 757000
Ar 1.083399e+00 0.000000e+00 0.000000e+00
1
Step 758000
Ar 9.888726e-01 0.000000e+00 0.000000e+00
1
Step 759000
Ar 1.034375e+00 0.000000e+00 0.000000e+00
1
Step 760000
Ar 1.029409e+00 0.000000e+00 0.000000e+00
1
Step 761000
Ar 1.107640e+00 0.000000e+00 0.000000e+00
1
Step 762000
Ar 9.750898e-01 0.000000e+00 0.000000e+00
1
Step 763000
Ar 1.099561e+00 0.000000e+00 0.000000e+00
1
Step 764000
Ar 1.021738e+00 0.000000e+00 0.000000e+00
1
Step 765000
Ar 1.164685e+00 0.000000e+00 0.000000e+00
1
Step 766000
Ar 1.076137e+00 0.000000e+00 0.000000e+00
1
Step 767000
Ar 1.016236e+00 0.000000e+00 0.000000e+00
1
Step 768000
Ar 1.108110e+00 0.000000e+00 0.000000e+00
1
Step 769000
Ar 1.021123e+00 0.000000e+00 0.000000e+00
1
Step 770000
Ar 1.077213e+00 0.000000e+00 0.000000e+00
1
Step 771000
Ar 1.102675e+00 0.000000e+00 0.000000e+00
1
Step 772000
Ar 1.033598e+00 0.000000e+00 0.000000e+00
1
Step 773000
Ar 1.041691e+00 0.000000e+00 0.000000e+00
1
Step 774000
Ar 9.469640e-01 0.000000e+00 0.000000e+00
1
Step 775000
Ar 1.161799e+00 0.000000e+00 0.000000e+00
1
Step 776000
Ar 9.743418e-01 0.000000e+00 0.000000e+00
1
Step 777000
Ar 1.091714e+00 0.000000e+00 0.000000e+00
1
Step 778000
Ar 1.002325e+00 0.000000e+00 0.000000e+00
1
Step 779000
Ar 1.033652e+00 0.000000e+00 0.000000e+00
1
Step 780000
Ar 9.775256e-01 0.000000e+00 0.000000e+00
1
Step 781000
Ar 1.165131e+00 0.000000e+00 0.000000e+00
1
Step 782000
Ar 1.164683e+00 0.000000e+00 0.000000e+00
1
Step 783000
Ar 1.114196e+00 0.000000e+00 0.000000e+00
1
Step 784000
Ar 9.897407e-01 0.000000e+00 0.000000e+00
1
Step 785000
Ar 9.731627e-01 0.000000e+00 0.000000e+00
1
Step 786000
Ar 1.012425e+00 0.000000e+00 0.000000e+00
1
Step 787000
Ar 1.067780e+00 0.000000e+00 0.000000e+00
1
Step 788000
Ar 1.080717e+00 0.000000e+00 0.000000e+00
1
Step 789000
Ar 1.111063e+00 0.000000e+00 0.000000e+00
1
Step 790000
Ar 9.509420e-01 0.000000e+00 0.000000e+00
1
Step 791000
Ar 9.573491e-01 0.000000e+00 0.000000e+00
1
Step 792000
Ar 9.989475e-01 0.000000e+00 0.000000e+00
1
Step 793000
Ar 1.023643e+00 0.000000e+00 0.000000e+00
1
Step 794000
Ar 1.113224e+00 0.000000e+00 0.000000e+00
1
Step 795000
Ar 9.603563e-01 0.000000e+00 0.000000e+00
1
Step 796000
Ar 9.776586e-01 0.000000e+00 0.000000e+00
1
Step 797000
Ar 1.116379e+00 0.000000e+00 0.000000e+00
1
Step 798000
Ar 9.502805e-01 0.000000e+00 0.000000e+00
1
Step 799000
Ar 1.075933e+00 0.000000e+00 0.000000e+00
1
Step 800000
Ar 1.020641e+00 0.000000e+00 0.000000e+00
1
Step 801000
Ar 9.832692e-01 0.000000e+00 0.000000e+00
1
Step 802000
Ar 1.072256e+00 0.000000e+00 0.000000e+00
1
Step 803000
Ar 1.056204e+00 0.000000e+00 0.000000e+00
1
Step 804000
Ar 1.090015e+00 0.000000e+00 0.000000e+00
1
Step 805000
Ar 1.004970e+00 0.000000e+00 0.000000e+00
1
Step 806000
Ar 1.188130e+00 0.000000e+00 0.000000e+00
1
Step 807000
Ar 1.047857e+00 0.000000e+00 0.000000e+00
1
Step 808000
Ar 9.503295e-01 0.000000e+00 0.000000e+00
1
Step 809000
Ar 1.125421e+00 0.000000e+00 0.000000e+00
1
Step 810000
Ar 1.064732e+00 0.000000e+00 0.000000e+00
1
Step 811000
Ar 9.704148e-01 0.000000e+00 0.000000e+00
1
Step 812000
Ar 1.005437e+00 0.000000e+00 0.000000e+00
1
Step 813000
Ar 1.033112e+00 0.000000e+00 0.000000e+00
1
Step 814000
Ar 1.064287e+00 0.000000e+00 0.000000e+00
1
Step 815000
Ar 9.823250e-01 0.000000e+00 0.000000e+00
1
Step 816000
Ar 1.035979e+00 0.000000e+00 0.000000e+00
1
Step 817000
Ar 1.015039e+00 0.000000e+00 0.000000e+00
1
Step 818000
Ar 9.704488e-01 0.000000e+00 0.000000e+00
1
Step 819000
Ar 1.143020e+00 0.000000e+00 0.000000e+00
1
Step 820000
Ar 1.088430e+00 0.000000e+00 0.000000e+00
1
Step 821000
Ar 1.081532e+00 0.000000e+00 0.000000e+00
1
Step 822000
Ar 1.036877e+00 0.000000e+00 0.000000e+00
1
Step 823000
Ar 9.660264e-01 0.000000e+00 0.000000e+00
1
Step 824000
Ar 1.100018e+00 0.000000e+00 0.000000e+00
1
Step 825000
Ar 1.069262e+00 0.000000e+00 0.000000e+00
1
Step 826000
Ar 1.011953e+00 0.000000e+00 0.000000e+00
1
Step 827000
Ar 9.818869e-01 0.000000e+00 0.000000e+00
1
Step 828000
Ar 1.050000e+00 0.000000e+00 0.000000e+00
1
Step 829000
Ar 1.044309e+00 0.000000e+00 0.000000e+00
1
Step 830000
Ar 9.853106e-01 0.000000e+00 0.000000e+00
1
Step 831000
Ar 1.140569e+00 0.000000e+00 0.000000e+00
1
Step 832000
Ar 9.619699e-01 0.000000e+00 0.000000e+00
1
Step 833000
Ar 1.191114e+00 0.000000e+00 0.000000e+00
1
Step 834000
Ar 1.047957e+00 0.000000e+00 0.000000e+00
1
Step 835000
Ar 1.081443e+00 0.000000e+00 0.000000e+00
1
Step 836000
Ar 1.075583e+00 0.000000e+00 0.000000e+00
1
Step 837000
Ar 1.106185e+00 0.000000e+00 0.000000e+00
1
Step 838000
Ar 9.583509e-01 0.000000e+00 0.000000e+00
1
Step 839000
Ar 1.045529e+00 0.000000e+00 0.000000e+00
1
Step 840000
Ar 1.008078e+00 0.000000e+00 0.000000e+00
1
Step 841000
Ar 1.049857e+00 0.000000e+00 0.000000e+00
1
Step 842000
Ar 9.806981e-01 0.000000e+00 0.000000e+00
1
Step 843000
Ar 9.402289e-01 0.000000e+00 0.000000e+00
1
Step 844000
Ar 1.026862e+00 0.000000e+00 0.000000e+00
1
Step 845000
Ar 9.922198e-01 0.000000e+00 0.000000e+00
1
Step 846000
Ar 1.081311e+00 0.000000e+00 0.000000e+00
1
Step 847000
Ar 1.084431e+00 0.000000e+00 0.000000e+00
1
Step 848000
Ar 9.556983e-01 0.000000e+00 0.000000e+00
1
Step 849000
Ar 1.010900e+00 0.000000e+00 0.000000e+00
1
Step 850000
Ar 1.061403e+00 0.000000e+00 0.000000e+00
1
Step 851000
Ar 1.256281e+00 0.000000e+00 0.000000e+00
1
Step 852000
Ar 9.799257e-01 0.000000e+00 0.000000e+00
1
Step 853000
Ar 1.007222e+00 0.000000e+00 0.000000e+00
1
Step 854000
Ar 1.091652e+00 0.000000e+00 0.000000e+00
1
Step 855000
Ar 9.367469e-01 0.000000e+00 0.000000e+00
1
Step 856000
Ar 1.029427e+00 0.000000e+00 0.000000e+00
1
Step 857000
Ar 1.088945e+00 0.000000e+00 0.000000e+00
1
Step 858000
Ar 1.282760e+00 0.000000e+00 0.000000e+00
1
Step 859000
Ar 1.040832e+00 0.000000e+00 0.000000e+00
1
Step 860000
Ar 1.009615e+00 0.000000e+00 0.000000e+00
1
Step 861000
Ar 1.053128e+00 0.000000e+00 0.000000e+00
1
Step 862000
Ar 9.535929e-01 0.000000e+00 0.000000e+00
1
Step 863000
Ar 1.016746e+00 0.000000e+00 0.000000e+00
1
Step 864000
Ar 9.715339e-01 0.000000e+00 0.000000e+00
1
Step 865000
Ar 9.659090e-01 0.000000e+00 0.000000e+00
1
Step 866000
Ar 1.088451e+00 0.000000e+00 0.000000e+00
1
Step 867000
Ar 9.528393e-01 0.000000e+00 0.000000e+00
1
Step 868000
Ar 1.082769e+00 0.000000e+00 0.000000e+00
1
Step 869000
Ar 9.491827e-01 0.000000e+00 0.000000e+00
1
Step 870000
Ar 1.060524e+00 0.000000e+00 0.000000e+00
1
Step 871000
Ar 1.083743e+00 0.000000e+00 0.000000e+00
1
Step 872000
Ar 9.823969e-01 0.000000e+00 0.000000e+00
1
Step 873000
Ar 1.088474e+00 0.000000e+00 0.000000e+00
1
Step 874000
Ar 1.000352e+00 0.000000e+00 0.000000e+00
1
Step 875000
Ar 9.727043e-01 0.000000e+00 0.000000e+00
1
Step 876000
Ar 1.029078e+00 0.000000e+00 0.000000e+00
1
Step 877000
Ar 9.618255e-01 0.000000e+00 0.000000e+00
1
Step 878000
Ar 1.047028e+00 0.000000e+00 0.000000e+00
1
Step 879000
Ar 1.145513e+00 0.000000e+00 0.000000e+00
1
Step 880000
Ar 9.552185e-01 0.000000e+00 0.000000e+00
1
Step 881000
Ar 1.032604e+00 0.000000e+00 0.000000e+00
1
Step 882000
Ar 1.007993e+00 0.000000e+00 0.000000e+00
1
Step 883000
Ar 1.130236e+00 0.000000e+00 0.000000e+00
1
Step 884000
Ar 1.108679e+00 0.000000e+00 0.000000e+00
1
Step 885000
Ar 1.133913e+00 0.000000e+00 0.000000e+00
1
Step 886000
Ar 1.073456e+00 0.000000e+00 0.000000e+00
1
Step 887000
Ar 1.069193e+00 0.000000e+00 0.000000e+00
1
Step 888000
Ar 1.224555e+00 0.000000e+00 0.000000e+00
1
Step 889000
Ar 1.050038e+00 0.000000e+00 0.000000e+00
1
Step 890000
Ar 1.060079e+00 0.000000e+00 0.000000e+00
1
Step 891000
Ar 1.051769e+00 0.000000e+00 0.000000e+00
1
Step 892000
Ar 1.017609e+00 0.000000e+00 0.000000e+00
1
Step 893000
Ar 1.053669e+00 0.000000e+00 0.000000e+00
1
Step 894000
Ar 1.163213e+00 0.000000e+00 0.000000e+00
1
Step 895000
Ar 9.900454e-01 0.000000e+00 0.000000e+00
1
Step 896000
Ar 1.008449e+00 0.000000e+00 0.000000e+00
1
Step 897000
Ar 1.132684e+00 0.000000e+00 0.000000e+00
1
Step 898000
Ar 9.850938e-01 0.000000e+00 0.000000e+00
1
Step 899000
Ar 9.467436e-01 0.000000e+00 0.000000e+00
1
Step 900000
Ar 9.548703e-01 0.000000e+00 0.000000e+00
1
Step 901000
Ar 1.125330e+00 0.000000e+00 0.000000e+00
1
Step 902000
Ar 9.980555e-01 0.000000e+00 0.000000e+00
1
Step 903000
Ar 1.236972e+00 0.000000e+00 0.000000e+00
1
Step 904000
Ar 1.064017e+00 0.000000e+00 0.000000e+00
1
Step 905000
Ar 1.232756e+00 0.000000e+00 0.000000e+00
1
Step 906000
Ar 1.027904e+00 0.000000e+00 0.000000e+00
1
Step 907000
Ar 1.023249e+00 0.000000e+00 0.000000e+00
1
Step 908000
Ar 9.911163e-01 0.000000e+00 0.000000e+00
1
Step 909000
Ar 9.687225e-01 0.000000e+00 0.000000e+00
1
Step 910000
Ar 1.237747e+00 0.000000e+00 0.000000e+00
1
Step 911000
Ar 1.010068e+00 0.000000e+00 0.000000e+00
1
Step 912000
Ar 9.800189e-01 0.000000e+00 0.000000e+00
1
Step 913000
Ar 1.040000e+00 0.000000e+00 0.000000e+00
1
Step 914000
Ar 1.132907e+00 0.000000e+00 0.000000e+00
1
Step 915000
Ar 1.067009e+00 0.000000e+00 0.000000e+00
1
Step 916000
Ar 9.762314e-01 0.000000e+00 0.000000e+00
1
Step 917000
Ar 1.230012e+00 0.000000e+00 0.000000e+00
1
Step 918000
Ar 1.009644e+00 0.000000e+00 0.000000e+00
1
Step 919000
Ar 1.064594e+00 0.000000e+00 0.000000e+00
1
Step 920000
Ar 1.047148e+00 0.000000e+00 0.000000e+00
1
Step 921000
Ar 1.065197e+00 0.000000e+00 0.000000e+00
1
Step 922000
Ar 1.055751e+00 0.000000e+00 0.000000e+00
1
Step 923000
Ar 9.784842e-01 0.000000e+00 0.000000e+00
1
Step 924000
Ar 1.189912e+00 0.000000e+00 0.000000e+00
1
Step 925000
Ar 1.083232e+00 0.000000e+00 0.000000e+00
1
Step 926000
Ar 1.149724e+00 0.000000e+00 0.000000e+00
1
Step 927000
Ar 9.642136e-01 0.000000e+00 0.000000e+00
1
Step 928000
Ar 9.701651e-01 0.000000e+00 0.000000e+00
1
Step 929000
Ar 9.440706e-01 0.000000e+00 0.000000e+00
1
Step 930000
Ar 1.049112e+00 0.000000e+00 0.000000e+00
1
Step 931000
Ar 1.058112e+00 0.000000e+00 0.000000e+00
1
Step 932000
Ar 1.025477e+00 0.000000e+00 0.000000e+00
1
Step 933000
Ar 1.071954e+00 0.000000e+00 0.000000e+00
1
Step 934000
Ar 1.093874e+00 0.000000e+00 0.000000e+00
1
Step 935000
Ar 1.050081e+00 0.000000e+00 0.000000e+00
1
Step 936000
Ar 9.438846e-01 0.000000e+00 0.000000e+00
1
Step 937000
Ar 9.595515e-01 0.000000e+00 0.000000e+00
1
Step 938000
Ar 1.072584e+00 0.000000e+00 0.000000e+00
1
Step 939000
Ar 1.121574e+00 0.000000e+00 0.000000e+00
1
Step 940000
Ar 9.692303e-01 0.000000e+00 0.000000e+00
1
Step 941000
Ar 9.373874e-01 0.000000e+00 0.000000e+00
1
Step 942000
Ar 1.017405e+00 0.000000e+00 0.000000e+00
1
Step 943000
Ar 1.002832e+00 0.000000e+00 0.000000e+00
1
Step 944000
Ar 1.041527e+00 0.000000e+00 0.000000e+00
1
Step 945000
Ar 1.253568e+00 0.000000e+00 0.000000e+00
1
Step 946000
Ar 1.017228e+00 0.000000e+00 0.000000e+00
1
Step 947000
Ar 1.002234e+00 0.000000e+00 0.000000e+00
1
Step 948000
Ar 9.811993e-01 0.000000e+00 0.000000e+00
1
Step 949000
Ar 1.012833e+00 0.000000e+00 0.000000e+00
1
Step 950000
Ar 1.228184e+00 0.000000e+00 0.000000e+00
1
Step 951000
Ar 1.038907e+00 0.000000e+00 0.000000e+00
1
Step 952000
Ar 1.040613e+00 0.000000e+00 0.000000e+00
1
Step 953000
Ar 1.027207e+00 0.000000e+00 0.000000e+00
1
Step 954000
Ar 1.030390e+00 0.000000e+00 0.000000e+00
1
Step 955000
Ar 1.164585e+00 0.000000e+00 0.000000e+00
1
Step 956000
Ar 1.115710e+00 0.000000e+00 0.000000e+00
1
Step 957000
Ar 1.173308e+00 0.000000e+00 0.000000e+00
1
Step 958000
Ar 1.085025e+00 0.000000e+00 0.000000e+00
1
Step 959000
Ar 1.035424e+00 0.000000e+00 0.000000e+00
1
Step 960000
Ar 1.035017e+00 0.000000e+00 0.000000e+00
1
Step 961000
Ar 9.994858e-01 0.000000e+00 0.000000e+00
1
Step 962000
Ar 9.764060e-01 0.000000e+00 0.000000e+00
1
Step 963000
Ar 1.115714e+00 0.000000e+00 0.000000e+00
1
Step 964000
Ar 9.419872e-01 0.000000e+00 0.000000e+00
1
Step 965000
Ar 9.863815e-01 0.000000e+00 0.000000e+00
1
Step 966000
Ar 1.016756e+00 0.000000e+00 0.000000e+00
1
Step 967000
Ar 1.080044e+00 0.000000e+00 0.000000e+00
1
Step 968000
Ar 9.456576e-01 0.000000e+00 0.000000e+00
1
Step 969000
Ar 1.091557e+00 0.000000e+00 0.000000e+00
1
Step 970000
Ar 1.295101e+00 0.000000e+00 0.000000e+00
1
Step 971000
Ar 9.476576e-01 0.000000e+00 0.000000e+00
1
Step 972000
Ar 9.312400e-01 0.000000e+00 0.000000e+00
1
Step 973000
Ar 1.231575e+00 0.000000e+00 0.000000e+00
1
Step 974000
Ar 1.024050e+00 0.000000e+00 0.000000e+00
1
Step 975000
Ar 1.071848e+00 0.000000e+00 0.000000e+00
1
Step 976000
Ar 9.950199e-01 0.000000e+00 0.000000e+00
1
Step 977000
Ar 9.411069e-01 0.000000e+00 0.000000e+00
1
Step 978000
Ar 1.061137e+00 0.000000e+00 0.000000e+00
1
Step 979000
Ar 1.076149e+00 0.000000e+00 0.000000e+00
1
Step 980000
Ar 1.081897e+00 0.000000e+00 0.000000e+00
1
Step 981000
Ar 9.767889e-01 0.000000e+00 0.000000e+00
1
Step 982000
Ar 1.096959e+00 0.000000e+00 0.000000e+00
1
Step 983000
Ar 1.039908e+00 0.000000e+00 0.000000e+00
1
Step 984000
Ar 1.075035e+00 0.000000e+00 0.000000e+00
1
Step 985000
Ar 9.948573e-01 0.000000e+00 0.000000e+00
1
Step 986000
Ar 9.498157e-01 0.000000e+00 0.000000e+00
1
Step 987000
Ar 1.003029e+00 0.000000e+00 0.000000e+00
1
Step 988000
Ar 1.158635e+00 0.000000e+00 0.000000e+00
1
Step 989000
Ar 9.798220e-01 0.000000e+00 0.000000e+00
1
Step 990000
Ar 1.103248e+00 0.000000e+00 0.000000e+00
1
Step 991000
Ar 1.107511e+00 0.000000e+00 0.000000e+00
1
Step 992000
Ar 1.076577e+00 0.000000e+00 0.000000e+00
1
Step 993000
Ar 1.076877e+00 0.000000e+00 0.000000e+00
1
Step 994000
Ar 1.129176e+00 0.000000e+00 0.000000e+00
1
Step 995000
Ar 1.031444e+00 0.000000e+00 0.000000e+00
1
Step 996000
Ar 1.033121e+00 0.000000e+00 0.000000e+00
1
Step 997000
Ar 1.121463e+00 0.000000e+00 0.000000e+00
1
Step 998000
Ar 9.423868e-01 0.000000e+00 0.000000e+00
1
Step 999000
Ar 1.015324e+00 0.000000e+00 0.000000e+00
