1
Step 120000
Ar 1.162753e+00 0.000000e+00 0.000000e+00
1
Step 121000
Ar 9.588185e-01 0.000000e+00 0.000000e+00
1
Step 122000
Ar 9.559052e-01 0.000000e+00 0.000000e+00
1
Step 123000
Ar 1.006273e+00 0.000000e+00 0.000000e+00
1
Step 124000
Ar 1.032719e+00 0.000000e+00 0.000000e+00
1
Step 125000
Ar 9.146186e-01 0.000000e+00 0.000000e+00
1
Step 126000
Ar 1.067353e+00 0.000000e+00 0.000000e+00
1
Step 127000
Ar 1.080316e+00 0.000000e+00 0.000000e+00
1
Step 128000
Ar 1.038806e+00 0.000000e+00 0.000000e+00
1
Step 129000
Ar 9.177979e-01 0.000000e+00 0.000000e+00
1
Step 130000
Ar 1.003460e+00 0.000000e+00 0.000000e+00
1
Step 131000
Ar 9.799266e-01 0.000000e+00 0.000000e+00
1
Step 132000
Ar 6.359813e-01 0.000000e+00 0.000000e+00
1
Step 133000
Ar 1.037666e+00 0.000000e+00 0.000000e+00
1
Step 134000
Ar 1.060839e+00 0.000000e+00 0.000000e+00
1
Step 135000
Ar 7.967619e-01 0.000000e+00 0.000000e+00
1
Step 136000
Ar 1.186954e+00 0.000000e+00 0.000000e+00
1
Step 137000
Ar 9.796979e-01 0.000000e+00 0.000000e+00
1
Step 138000
Ar 8.497890e-01 0.000000e+00 0.000000e+00
1
Step 139000
Ar 9.886802e-01 0.000000e+00 0.000000e+00
1
Step 140000
Ar 1.052992e+00 0.000000e+00 0.000000e+00
1
Step 141000
Ar 8.389726e-01 0.000000e+00 0.000000e+00
1
Step 142000
Ar 8.963878e-01 0.000000e+00 0.000000e+00
1
Step 143000
Ar 8.877838e-01 0.000000e+00 0.000000e+00
1
Step 144000
Ar 1.054514e+00 0.000000e+00 0.000000e+00
1
Step 145000
Ar 1.037327e+00 0.000000e+00 0.000000e+00
1
Step 146000
Ar 6.089702e-01 0.000000e+00 0.000000e+00
1
Step 147000
Ar 1.101922e+00 0.000000e+00 0.000000e+00
1
Step 148000
Ar 1.252104e+00 0.000000e+00 0.000000e+00
1
Step 149000
Ar 7.929466e-01 0.000000e+00 0.000000e+00
1
Step 150000
Ar 9.677632e-01 0.000000e+00 0.000000e+00
1
Step 151000
Ar 9.723563e-01 0.000000e+00 0.000000e+00
1
Step 152000
Ar 1.147985e+00 0.000000e+00 0.000000e+00
1
Step 153000
Ar 8.045372e-01 0.000000e+00 0.000000e+00
1
Step 154000
Ar 8.005585e-01 0.000000e+00 0.000000e+00
1
Step 155000
Ar 8.804408e-01 0.000000e+00 0.000000e+00
1
Step 156000
Ar 1.026461e+00 0.000000e+00 0.000000e+00
1
Step 157000
Ar 9.384140e-01 0.000000e+00 0.000000e+00
1
Step 158000
Ar 1.006188e+00 0.000000e+00 0.000000e+00
1
Step 159000
Ar 1.043647e+00 0.000000e+00 0.000000e+00
1
Step 160000
Ar 9.849856e-01 0.000000e+00 0.000000e+00
1
Step 161000
Ar 1.148180e+00 0.000000e+00 0.000000e+00
1
Step 162000
Ar 8.913694e-01 0.000000e+00 0.000000e+00
1
Step 163000
Ar 1.167497e+00 0.000000e+00 0.000000e+00
1
Step 164000
Ar 1.104004e+00 0.000000e+00 0.000000e+00
1
Step 165000
Ar 1.143871e+00 0.000000e+00 0.000000e+00
1
Step 166000
Ar 9.140740e-01 0.000000e+00 0.000000e+00
1
Step 167000
Ar 1.122870e+00 0.000000e+00 0.000000e+00
1
Step 168000
Ar 1.112414e+00 0.000000e+00 0.000000e+00
1
Step 169000
Ar 1.100383e+00 0.000000e+00 0.000000e+00
1
Step 170000
Ar 1.019301e+00 0.000000e+00 0.000000e+00
1
Step 171000
Ar 1.200459e+00 0.000000e+00 0.000000e+00
1
Step 172000
Ar 8.402225e-01 0.000000e+00 0.000000e+00
1
Step 173000
Ar 8.450183e-01 0.000000e+00 0.000000e+00
1
Step 174000
Ar 1.013233e+00 0.000000e+00 0.000000e+00
1
Step 175000
Ar 9.125704e-01 0.000000e+00 0.000000e+00
1
Step 176000
Ar 9.887704e-01 0.000000e+00 0.000000e+00
1
Step 177000
Ar 9.952231e-01 0.000000e+00 0.000000e+00
1
Step 178000
Ar 1.092249e+00 0.000000e+00 0.000000e+00
1
Step 179000
Ar 9.689730e-01 0.000000e+00 0.000000e+00
1
Step 180000
Ar 1.120281e+00 0.000000e+00 0.000000e+00
1
Step 181000
Ar 8.459951e-01 0.000000e+00 0.000000e+00
1
Step 182000
Ar 9.467244e-01 0.000000e+00 0.000000e+00
1
Step 183000
Ar 9.140975e-01 0.000000e+00 0.000000e+00
1
Step 184000
Ar 1.120303e+00 0.000000e+00 0.000000e+00
1
Step 185000
Ar 1.034803e+00 0.000000e+00 0.000000e+00
1
Step 186000
Ar 1.054812e+00 0.000000e+00 0.000000e+00
1
Step 187000
Ar 9.688454e-01 0.000000e+00 0.000000e+00
1
Step 188000
Ar 1.114238e+00 0.000000e+00 0.000000e+00
1
Step 189000
Ar 9.784359e-01 0.000000e+00 0.000000e+00
1
Step 190000
Ar 1.007848e+00 0.000000e+00 0.000000e+00
1
Step 191000
Ar 8.375023e-01 0.000000e+00 0.000000e+00
1
Step 192000
Ar 1.091711e+00 0.000000e+00 0.000000e+00
1
Step 193000
Ar 1.110654e+00 0.000000e+00 0.000000e+00
1
Step 194000
Ar 9.304909e-01 0.000000e+00 0.000000e+00
1
Step 195000
Ar 9.149690e-01 0.000000e+00 0.000000e+00
1
Step 196000
Ar 9.021498e-01 0.000000e+00 0.000000e+00
1
Step 197000
Ar 8.558926e-01 0.000000e+00 0.000000e+00
1
Step 198000
Ar 8.941989e-01 0.000000e+00 0.000000e+00
1
Step 199000
Ar 1.018328e+00 0.000000e+00 0.000000e+00
1
Step 200000
Ar 1.108929e+00 0.000000e+00 0.000000e+00
1
Step 201000
Ar 8.042738e-01 0.000000e+00 0.000000e+00
1
Step 202000
Ar 1.017325e+00 0.000000e+00 0.000000e+00
1
Step 203000
Ar 9.339422e-01 0.000000e+00 0.000000e+00
1
Step 204000
Ar 1.155044e+00 0.000000e+00 0.000000e+00
1
Step 205000
Ar 1.011390e+00 0.000000e+00 0.000000e+00
1
Step 206000
Ar 9.883550e-01 0.000000e+00 0.000000e+00
1
Step 207000
Ar 1.100565e+00 0.000000e+00 0.000000e+00
1
Step 208000
Ar 9.224232e-01 0.000000e+00 0.000000e+00
1
Step 209000
Ar 9.503854e-01 0.000000e+00 0.000000e+00
1
Step 210000
Ar 1.073402e+00 0.000000e+00 0.000000e+00
1
Step 211000
Ar 1.082706e+00 0.000000e+00 0.000000e+00
1
Step 212000
Ar 8.285295e-01 0.000000e+00 0.000000e+00
1
Step 213000
Ar 9.976650e-01 0.000000e+00 0.000000e+00
1
Step 214000
Ar 1.090672e+00 0.000000e+00 0.000000e+00
1
Step 215000
Ar 9.673514e-01 0.000000e+00 0.000000e+00
1
Step 216000
Ar 1.033872e+00 0.000000e+00 0.000000e+00
1
Step 217000
Ar 9.123704e-01 0.000000e+00 0.000000e+00
1
Step 218000
Ar 1.048065e+00 0.000000e+00 0.000000e+00
1
Step 219000
Ar 9.275763e-01 0.000000e+00 0.000000e+00
1
Step 220000
Ar 1.152114e+00 0.000000e+00 0.000000e+00
1
Step 221000
Ar 1.068452e+00 0.000000e+00 0.000000e+00
1
Step 222000
Ar 1.118721e+00 0.000000e+00 0.000000e+00
1
Step 223000
Ar 8.046442e-01 0.000000e+00 0.000000e+00
1
Step 224000
Ar 9.722924e-01 0.000000e+00 0.000000e+00
1
Step 225000
Ar 6.615250e-01 0.000000e+00 0.000000e+00
1
Step 226000
Ar 1.157970e+00 0.000000e+00 0.000000e+00
1
Step 227000
Ar 7.209804e-01 0.000000e+00 0.000000e+00
1
Step 228000
Ar 1.072143e+00 0.000000e+00 0.000000e+00
1
Step 229000
Ar 1.033255e+00 0.000000e+00 0.000000e+00
1
Step 230000
Ar 9.312378e-01 0.000000e+00 0.000000e+00
1
Step 231000
Ar 9.224753e-01 0.000000e+00 0.000000e+00
1
Step 232000
Ar 7.507163e-01 0.000000e+00 0.000000e+00
1
Step 233000
Ar 8.788335e-01 0.000000e+00 0.000000e+00
1
Step 234000
Ar 1.012512e+00 0.000000e+00 0.000000e+00
1
Step 235000
Ar 9.929915e-01 0.000000e+00 0.000000e+00
1
Step 236000
Ar 1.158006e+00 0.000000e+00 0.000000e+00
1
Step 237000
Ar 1.004453e+00 0.000000e+00 0.000000e+00
1
Step 238000
Ar 9.451603e-01 0.000000e+00 0.000000e+00
1
Step 239000
Ar 7.206052e-01 0.000000e+00 0.000000e+00
1
Step 240000
Ar 9.752254e-01 0.000000e+00 0.000000e+00
1
Step 241000
Ar 1.104613e+00 0.000000e+00 0.000000e+00
1
Step 242000
Ar 7.549247e-01 0.000000e+00 0.000000e+00
1
Step 243000
Ar 1.024272e+00 0.000000e+00 0.000000e+00
1
Step 244000
Ar 8.822957e-01 0.000000e+00 0.000000e+00
1
Step 245000
Ar 9.757160e-01 0.000000e+00 0.000000e+00
1
Step 246000
Ar 9.512273e-01 0.000000e+00 0.000000e+00
1
Step 247000
Ar 9.118231e-01 0.000000e+00 0.000000e+00
1
Step 248000
Ar 9.708007e-01 0.000000e+00 0.000000e+00
1
Step 249000
Ar 1.076590e+00 0.000000e+00 0.000000e+00
1
Step 250000
Ar 9.900927e-01 0.000000e+00 0.000000e+00
1
Step 251000
Ar 1.218746e+00 0.000000e+00 0.000000e+00
1
Step 252000
Ar 1.074560e+00 0.000000e+00 0.000000e+00
1
Step 253000
Ar 8.626584e-01 0.000000e+00 0.000000e+00
1
Step 254000
Ar 9.851297e-01 0.000000e+00 0.000000e+00
1
Step 255000
Ar 9.924693e-01 0.000000e+00 0.000000e+00
1
Step 256000
Ar 9.879334e-01 0.000000e+00 0.000000e+00
1
Step 257000
Ar 9.898810e-01 0.000000e+00 0.000000e+00
1
Step 258000
Ar 1.043792e+00 0.000000e+00 0.000000e+00
1
Step 259000
Ar 8.209191e-01 0.000000e+00 0.000000e+00
1
Step 260000
Ar 1.071915e+00 0.000000e+00 0.000000e+00
1
Step 261000
Ar 1.051982e+00 0.000000e+00 0.000000e+00
1
Step 262000
Ar 6.716367e-01 0.000000e+00 0.000000e+00
1
Step 263000
Ar 1.072882e+00 0.000000e+00 0.000000e+00
1
Step 264000
Ar 9.583065e-01 0.000000e+00 0.000000e+00
1
Step 265000
Ar 9.390992e-01 0.000000e+00 0.000000e+00
1
Step 266000
Ar 1.093754e+00 0.000000e+00 0.000000e+00
1
Step 267000
Ar 1.195185e+00 0.000000e+00 0.000000e+00
1
Step 268000
Ar 1.122720e+00 0.000000e+00 0.000000e+00
1
Step 269000
Ar 1.091209e+00 0.000000e+00 0.000000e+00
1
Step 270000
Ar 9.991405e-01 0.000000e+00 0.000000e+00
1
Step 271000
Ar 9.629692e-01 0.000000e+00 0.000000e+00
1
Step 272000
Ar 9.436543e-01 0.000000e+00 0.000000e+00
1
Step 273000
Ar 9.985036e-01 0.000000e+00 0.000000e+00
1
Step 274000
Ar 1.112433e+00 0.000000e+00 0.000000e+00
1
Step 275000
Ar 9.918306e-01 0.000000e+00 0.000000e+00
1
Step 276000
Ar 1.043864e+00 0.000000e+00 0.000000e+00
1
Step 277000
Ar 1.186514e+00 0.000000e+00 0.000000e+00
1
Step 278000
Ar 9.693948e-01 0.000000e+00 0.000000e+00
1
Step 279000
Ar 9.576195e-01 0.000000e+00 0.000000e+00
1
Step 280000
Ar 1.006441e+00 0.000000e+00 0.000000e+00
1
Step 281000
Ar 9.535040e-01 0.000000e+00 0.000000e+00
1
Step 282000
Ar 8.056509e-01 0.000000e+00 0.000000e+00
1
Step 283000
Ar 9.192934e-01 0.000000e+00 0.000000e+00
1
Step 284000
Ar 1.013075e+00 0.000000e+00 0.000000e+00
1
Step 285000
Ar 1.144280e+00 0.000000e+00 0.000000e+00
1
Step 286000
Ar 9.910227e-01 0.000000e+00 0.000000e+00
1
Step 287000
Ar 8.665615e-01 0.000000e+00 0.000000e+00
1
Step 288000
Ar 7.751033e-01 0.000000e+00 0.000000e+00
1
Step 289000
Ar 1.001446e+00 0.000000e+00 0.000000e+00
1
Step 290000
Ar 9.105901e-01 0.000000e+00 0.000000e+00
1
Step 291000
Ar 1.029652e+00 0.000000e+00 0.000000e+00
1
Step 292000
Ar 9.259610e-01 0.000000e+00 0.000000e+00
1
Step 293000
Ar 1.002091e+00 0.000000e+00 0.000000e+00
1
Step 294000
Ar 1.065438e+00 0.000000e+00 0.000000e+00
1
Step 295000
Ar 8.214331e-01 0.000000e+00 0.000000e+00
1
Step 296000
Ar 9.001679e-01 0.000000e+00 0.000000e+00
1
Step 297000
Ar 1.083442e+00 0.000000e+00 0.000000e+00
1
Step 298000
Ar 1.117490e+00 0.000000e+00 0.000000e+00
1
Step 299000
Ar 6.294489e-01 0.000000e+00 0.000000e+00
1
Step 300000
Ar 9.439059e-01 0.000000e+00 0.000000e+00
1
Step 301000
Ar 1.001168e+00 0.000000e+00 0.000000e+00
1
Step 302000
Ar 1.181054e+00 0.000000e+00 0.000000e+00
1
Step 303000
Ar 9.076692e-01 0.000000e+00 0.000000e+00
1
Step 304000
Ar 9.494996e-01 0.000000e+00 0.000000e+00
1
Step 305000
Ar 8.866415e-01 0.000000e+00 0.000000e+00
1
Step 306000
Ar 1.052757e+00 0.000000e+00 0.000000e+00
1
Step 307000
Ar 9.210758e-01 0.000000e+00 0.000000e+00
1
Step 308000
Ar 9.529184e-01 0.000000e+00 0.000000e+00
1
Step 309000
Ar 9.752441e-01 0.000000e+00 0.000000e+00
1
Step 310000
Ar 1.000615e+00 0.000000e+00 0.000000e+00
1
Step 311000
Ar 9.464555e-01 0.000000e+00 0.000000e+00
1
Step 312000
Ar 9.392851e-01 0.000000e+00 0.000000e+00
1
Step 313000
Ar 9.956834e-01 0.000000e+00 0.000000e+00
1
Step 314000
Ar 8.036771e-01 0.000000e+00 0.000000e+00
1
Step 315000
Ar 1.070967e+00 0.000000e+00 0.000000e+00
1
Step 316000
Ar 1.085634e+00 0.000000e+00 0.000000e+00
1
Step 317000
Ar 1.081749e+00 0.000000e+00 0.000000e+00
1
Step 318000
Ar 9.603676e-01 0.000000e+00 0.000000e+00
1
Step 319000
Ar 9.057474e-01 0.000000e+00 0.000000e+00
1
Step 320000
Ar 9.705146e-01 0.000000e+00 0.000000e+00
1
Step 321000
Ar 9.376193e-01 0.000000e+00 0.000000e+00
1
Step 322000
Ar 9.366183e-01 0.000000e+00 0.000000e+00
1
Step 323000
Ar 9.179899e-01 0.000000e+00 0.000000e+00
1
Step 324000
Ar 8.326066e-01 0.000000e+00 0.000000e+00
1
Step 325000
Ar 8.910979e-01 0.000000e+00 0.000000e+00
1
Step 326000
Ar 8.391535e-01 0.000000e+00 0.000000e+00
1
Step 327000
Ar 8.865929e-01 0.000000e+00 0.000000e+00
1
Step 328000
Ar 8.745252e-01 0.000000e+00 0.000000e+00
1
Step 329000
Ar 6.846336e-01 0.000000e+00 0.000000e+00
1
Step 330000
Ar 8.777881e-01 0.000000e+00 0.000000e+00
1
Step 331000
Ar 8.002537e-01 0.000000e+00 0.000000e+00
1
Step 332000
Ar 8.778093e-01 0.000000e+00 0.000000e+00
1
Step 333000
Ar 8.593238e-01 0.000000e+00 0.000000e+00
1
Step 334000
Ar 8.757221e-01 0.000000e+00 0.000000e+00
1
Step 335000
Ar 8.608662e-01 0.000000e+00 0.000000e+00
1
Step 336000
Ar 9.072036e-01 0.000000e+00 0.000000e+00
1
Step 337000
Ar 8.699462e-01 0.000000e+00 0.000000e+00
1
Step 338000
Ar 9.111261e-01 0.000000e+00 0.000000e+00
1
Step 339000
Ar 9.313142e-01 0.000000e+00 0.000000e+00
1
Step 340000
Ar 9.305007e-01 0.000000e+00 0.000000e+00
1
Step 341000
Ar 9.232085e-01 0.000000e+00 0.000000e+00
1
Step 342000
Ar 8.931069e-01 0.000000e+00 0.000000e+00
1
Step 343000
Ar 8.444190e-01 0.000000e+00 0.000000e+00
1
Step 344000
Ar 9.267915e-01 0.000000e+00 0.000000e+00
1
Step 345000
Ar 9.084724e-01 0.000000e+00 0.000000e+00
1
Step 346000
Ar 8.124892e-01 0.000000e+00 0.000000e+00
1
Step 347000
Ar 9.383485e-01 0.000000e+00 0.000000e+00
1
Step 348000
Ar 9.173559e-01 0.000000e+00 0.000000e+00
1
Step 349000
Ar 9.548158e-01 0.000000e+00 0.000000e+00
1
Step 350000
Ar 9.293352e-01 0.000000e+00 0.000000e+00
1
Step 351000
Ar 6.285869e-01 0.000000e+00 0.000000e+00
1
Step 352000
Ar 6.743083e-01 0.000000e+00 0.000000e+00
1
Step 353000
Ar 8.829828e-01 0.000000e+00 0.000000e+00
1
Step 354000
Ar 8.717787e-01 0.000000e+00 0.000000e+00
1
Step 355000
Ar 9.493466e-01 0.000000e+00 0.000000e+00
1
Step 356000
Ar 9.399936e-01 0.000000e+00 0.000000e+00
1
Step 357000
Ar 8.376538e-01 0.000000e+00 0.000000e+00
1
Step 358000
Ar 8.835925e-01 0.000000e+00 0.000000e+00
1
Step 359000
Ar 8.859560e-01 0.000000e+00 0.000000e+00
1
Step 360000
Ar 6.113027e-01 0.000000e+00 0.000000e+00
1
Step 361000
Ar 9.186810e-01 0.000000e+00 0.000000e+00
1
Step 362000
Ar 7.756647e-01 0.000000e+00 0.000000e+00
1
Step 363000
Ar 8.798138e-01 0.000000e+00 0.000000e+00
1
Step 364000
Ar 8.884426e-01 0.000000e+00 0.000000e+00
1
Step 365000
Ar 9.174136e-01 0.000000e+00 0.000000e+00
1
Step 366000
Ar 9.007913e-01 0.000000e+00 0.000000e+00
1
Step 367000
Ar 9.537605e-01 0.000000e+00 0.000000e+00
1
Step 368000
Ar 8.011245e-01 0.000000e+00 0.000000e+00
1
Step 369000
Ar 8.873009e-01 0.000000e+00 0.000000e+00
1
Step 370000
Ar 9.094834e-01 0.000000e+00 0.000000e+00
1
Step 371000
Ar 8.418438e-01 0.000000e+00 0.000000e+00
1
Step 372000
Ar 7.675653e-01 0.000000e+00 0.000000e+00
1
Step 373000
Ar 9.277527e-01 0.000000e+00 0.000000e+00
1
Step 374000
Ar 9.025098e-01 0.000000e+00 0.000000e+00
1
Step 375000
Ar 7.445287e-01 0.000000e+00 0.000000e+00
1
Step 376000
Ar 7.582007e-01 0.000000e+00 0.000000e+00
1
Step 377000
Ar 9.102419e-01 0.000000e+00 0.000000e+00
1
Step 378000
Ar 9.255258e-01 0.000000e+00 0.000000e+00
1
Step 379000
Ar 9.597593e-01 0.000000e+00 0.000000e+00
1
Step 380000
Ar 9.453839e-01 0.000000e+00 0.000000e+00
1
Step 381000
Ar 8.558352e-01 0.000000e+00 0.000000e+00
1
Step 382000
Ar 9.234212e-01 0.000000e+00 0.000000e+00
1
Step 383000
Ar 8.504070e-01 0.000000e+00 0.000000e+00
1
Step 384000
Ar 9.279297e-01 0.000000e+00 0.000000e+00
1
Step 385000
Ar 9.564866e-01 0.000000e+00 0.000000e+00
1
Step 386000
Ar 8.648579e-01 0.000000e+00 0.000000e+00
1
Step 387000
Ar 8.832883e-01 0.000000e+00 0.000000e+00
1
Step 388000
Ar 6.783982e-01 0.000000e+00 0.000000e+00
1
Step 389000
Ar 9.473782e-01 0.000000e+00 0.000000e+00
1
Step 390000
Ar 8.244528e-01 0.000000e+00 0.000000e+00
1
Step 391000
Ar 8.192265e-01 0.000000e+00 0.000000e+00
1
Step 392000
Ar 9.163175e-01 0.000000e+00 0.000000e+00
1
Step 393000
Ar 9.077453e-01 0.000000e+00 0.000000e+00
1
Step 394000
Ar 8.353023e-01 0.000000e+00 0.000000e+00
1
Step 395000
Ar 9.476773e-01 0.000000e+00 0.000000e+00
1
Step 396000
Ar 7.299395e-01 0.000000e+00 0.000000e+00
1
Step 397000
Ar 9.264273e-01 0.000000e+00 0.000000e+00
1
Step 398000
Ar 8.572969e-01 0.000000e+00 0.000000e+00
1
Step 399000
Ar 7.438001e-01 0.000000e+00 0.000000e+00
1
Step 400000
Ar 8.989342e-01 0.000000e+00 0.000000e+00
1
Step 401000
Ar 7.117486e-01 0.000000e+00 0.000000e+00
1
Step 402000
Ar 9.524308e-01 0.000000e+00 0.000000e+00
1
Step 403000
Ar 8.462467e-01 0.000000e+00 0.000000e+00
1
Step 404000
Ar 9.178961e-01 0.000000e+00 0.000000e+00
1
Step 405000
Ar 7.669104e-01 0.000000e+00 0.000000e+00
1
Step 406000
Ar 8.742454e-01 0.000000e+00 0.000000e+00
1
Step 407000
Ar 8.126856e-01 0.000000e+00 0.000000e+00
1
Step 408000
Ar 8.614867e-01 0.000000e+00 0.000000e+00
1
Step 409000
Ar 8.313665e-01 0.000000e+00 0.000000e+00
1
Step 410000
Ar 9.441685e-01 0.000000e+00 0.000000e+00
1
Step 411000
Ar 8.350850e-01 0.000000e+00 0.000000e+00
1
Step 412000
Ar 9.373003e-01 0.000000e+00 0.000000e+00
1
Step 413000
Ar 9.000390e-01 0.000000e+00 0.000000e+00
1
Step 414000
Ar 8.816154e-01 0.000000e+00 0.000000e+00
1
Step 415000
Ar 9.482306e-01 0.000000e+00 0.000000e+00
1
Step 416000
Ar 9.365197e-01 0.000000e+00 0.000000e+00
1
Step 417000
Ar 7.295673e-01 0.000000e+00 0.000000e+00
1
Step 418000
Ar 9.445587e-01 0.000000e+00 0.000000e+00
1
Step 419000
Ar 8.851717e-01 0.000000e+00 0.000000e+00
1
Step 420000
Ar 8.297331e-01 0.000000e+00 0.000000e+00
1
Step 421000
Ar 8.939506e-01 0.000000e+00 0.000000e+00
1
Step 422000
Ar 8.483283e-01 0.000000e+00 0.000000e+00
1
Step 423000
Ar 8.712832e-01 0.000000e+00 0.000000e+00
1
Step 424000
Ar 7.576230e-01 0.000000e+00 0.000000e+00
1
Step 425000
Ar 9.384992e-01 0.000000e+00 0.000000e+00
1
Step 426000
Ar 9.368251e-01 0.000000e+00 0.000000e+00
1
Step 427000
Ar 9.255330e-01 0.000000e+00 0.000000e+00
1
Step 428000
Ar 9.374580e-01 0.000000e+00 0.000000e+00
1
Step 429000
Ar 9.362079e-01 0.000000e+00 0.000000e+00
1
Step 430000
Ar 7.644681e-01 0.000000e+00 0.000000e+00
1
Step 431000
Ar 9.451189e-01 0.000000e+00 0.000000e+00
1
Step 432000
Ar 9.084990e-01 0.000000e+00 0.000000e+00
1
Step 433000
Ar 8.356481e-01 0.000000e+00 0.000000e+00
1
Step 434000
Ar 9.314166e-01 0.000000e+00 0.000000e+00
1
Step 435000
Ar 8.542952e-01 0.000000e+00 0.000000e+00
1
Step 436000
Ar 9.499612e-01 0.000000e+00 0.000000e+00
1
Step 437000
Ar 9.071683e-01 0.000000e+00 0.000000e+00
1
Step 438000
Ar 8.477052e-01 0.000000e+00 0.000000e+00
1
Step 439000
Ar 6.961613e-01 0.000000e+00 0.000000e+00
1
Step 440000
Ar 9.060151e-01 0.000000e+00 0.000000e+00
1
Step 441000
Ar 9.412996e-01 0.000000e+00 0.000000e+00
1
Step 442000
Ar 8.632691e-01 0.000000e+00 0.000000e+00
1
Step 443000
Ar 6.683884e-01 0.000000e+00 0.000000e+00
1
Step 444000
Ar 7.352187e-01 0.000000e+00 0.000000e+00
1
Step 445000
Ar 8.920353e-01 0.000000e+00 0.000000e+00
1
Step 446000
Ar 8.491826e-01 0.000000e+00 0.000000e+00
1
Step 447000
Ar 9.456049e-01 0.000000e+00 0.000000e+00
1
Step 448000
Ar 9.107078e-01 0.000000e+00 0.000000e+00
1
Step 449000
Ar 7.887786e-01 0.000000e+00 0.000000e+00
1
Step 450000
Ar 7.618087e-01 0.000000e+00 0.000000e+00
1
Step 451000
Ar 9.200017e-01 0.000000e+00 0.000000e+00
1
Step 452000
Ar 9.095840e-01 0.000000e+00 0.000000e+00
1
Step 453000
Ar 7.945569e-01 0.000000e+00 0.000000e+00
1
Step 454000
Ar 9.176940e-01 0.000000e+00 0.000000e+00
1
Step 455000
Ar 9.339251e-01 0.000000e+00 0.000000e+00
1
Step 456000
Ar 9.239798e-01 0.000000e+00 0.000000e+00
1
Step 457000
Ar 8.667194e-01 0.000000e+00 0.000000e+00
1
Step 458000
Ar 9.327663e-01 0.000000e+00 0.000000e+00
1
Step 459000
Ar 9.304439e-01 0.000000e+00 0.000000e+00
1
Step 460000
Ar 8.915858e-01 0.000000e+00 0.000000e+00
1
Step 461000
Ar 7.324282e-01 0.000000e+00 0.000000e+00
1
Step 462000
Ar 9.000581e-01 0.000000e+00 0.000000e+00
1
Step 463000
Ar 7.980833e-01 0.000000e+00 0.000000e+00
1
Step 464000
Ar 7.047862e-01 0.000000e+00 0.000000e+00
1
Step 465000
Ar 9.129985e-01 0.000000e+00 0.000000e+00
1
Step 466000
Ar 8.121159e-01 0.000000e+00 0.000000e+00
1
Step 467000
Ar 8.582178e-01 0.000000e+00 0.000000e+00
1
Step 468000
Ar 8.437099e-01 0.000000e+00 0.000000e+00
1
Step 469000
Ar 9.356280e-01 0.000000e+00 0.000000e+00
1
Step 470000
Ar 9.053515e-01 0.000000e+00 0.000000e+00
1
Step 471000
Ar 8.666776e-01 0.000000e+00 0.000000e+00
1
Step 472000
Ar 8.015017e-01 0.000000e+00 0.000000e+00
1
Step 473000
Ar 7.911361e-01 0.000000e+00 0.000000e+00
1
Step 474000
Ar 8.269280e-01 0.000000e+00 0.000000e+00
1
Step 475000
Ar 8.443518e-01 0.000000e+00 0.000000e+00
1
Step 476000
Ar 8.971858e-01 0.000000e+00 0.000000e+00
1
Step 477000
Ar 9.371146e-01 0.000000e+00 0.000000e+00
1
Step 478000
Ar 9.383205e-01 0.000000e+00 0.000000e+00
1
Step 479000
Ar 8.860518e-01 0.000000e+00 0.000000e+00
1
Step 480000
Ar 8.948974e-01 0.000000e+00 0.000000e+00
1
Step 481000
Ar 7.142575e-01 0.000000e+00 0.000000e+00
1
Step 482000
Ar 9.067725e-01 0.000000e+00 0.000000e+00
1
Step 483000
Ar 8.965164e-01 0.000000e+00 0.000000e+00
1
Step 484000
Ar 9.464774e-01 0.000000e+00 0.000000e+00
1
Step 485000
Ar 8.411743e-01 0.000000e+00 0.000000e+00
1
Step 486000
Ar 9.186023e-01 0.000000e+00 0.000000e+00
1
Step 487000
Ar 8.327059e-01 0.000000e+00 0.000000e+00
1
Step 488000
Ar 9.551015e-01 0.000000e+00 0.000000e+00
1
Step 489000
Ar 9.262703e-01 0.000000e+00 0.000000e+00
1
Step 490000
Ar 8.149840e-01 0.000000e+00 0.000000e+00
1
Step 491000
Ar 7.636415e-01 0.000000e+00 0.000000e+00
1
Step 492000
Ar 9.472283e-01 0.000000e+00 0.000000e+00
1
Step 493000
Ar 8.474214e-01 0.000000e+00 0.000000e+00
1
Step 494000
Ar 9.252489e-01 0.000000e+00 0.000000e+00
1
Step 495000
Ar 9.376634e-01 0.000000e+00 0.000000e+00
1
Step 496000
Ar 9.297200e-01 0.000000e+00 0.000000e+00
1
Step 497000
Ar 8.324432e-01 0.000000e+00 0.000000e+00
1
Step 498000
Ar 8.626348e-01 0.000000e+00 0.000000e+00
1
Step 499000
Ar 8.844049e-01 0.000000e+00 0.000000e+00
1
Step 500000
Ar 9.067844e-01 0.000000e+00 0.000000e+00
1
Step 501000
Ar 9.084408e-01 0.000000e+00 0.000000e+00
1
Step 502000
Ar 9.464490e-01 0.000000e+00 0.000000e+00
1
Step 503000
Ar 9.364063e-01 0.000000e+00 0.000000e+00
1
Step 504000
Ar 9.465636e-01 0.000000e+00 0.000000e+00
1
Step 505000
Ar 8.590103e-01 0.000000e+00 0.000000e+00
1
Step 506000
Ar 9.040482e-01 0.000000e+00 0.000000e+00
1
Step 507000
Ar 8.259756e-01 0.000000e+00 0.000000e+00
1
Step 508000
Ar 8.624831e-01 0.000000e+00 0.000000e+00
1
Step 509000
Ar 6.754098e-01 0.000000e+00 0.000000e+00
1
Step 510000
Ar 9.543468e-01 0.000000e+00 0.000000e+00
1
Step 511000
Ar 7.833863e-01 0.000000e+00 0.000000e+00
1
Step 512000
Ar 8.185233e-01 0.000000e+00 0.000000e+00
1
Step 513000
Ar 9.070379e-01 0.000000e+00 0.000000e+00
1
Step 514000
Ar 9.210461e-01 0.000000e+00 0.000000e+00
1
Step 515000
Ar 9.311739e-01 0.000000e+00 0.000000e+00
1
Step 516000
Ar 8.756574e-01 0.000000e+00 0.000000e+00
1
Step 517000
Ar 9.141153e-01 0.000000e+00 0.000000e+00
1
Step 518000
Ar 9.181098e-01 0.000000e+00 0.000000e+00
1
Step 519000
Ar 9.158698e-01 0.000000e+00 0.000000e+00
1
Step 520000
Ar 8.490683e-01 0.000000e+00 0.000000e+00
1
Step 521000
Ar 8.448048e-01 0.000000e+00 0.000000e+00
1
Step 522000
Ar 9.191457e-01 0.000000e+00 0.000000e+00
1
Step 523000
Ar 8.650166e-01 0.000000e+00 0.000000e+00
1
Step 524000
Ar 8.977974e-01 0.000000e+00 0.000000e+00
1
Step 525000
Ar 9.481241e-01 0.000000e+00 0.000000e+00
1
Step 526000
Ar 8.542464e-01 0.000000e+00 0.000000e+00
1
Step 527000
Ar 8.468289e-01 0.000000e+00 0.000000e+00
1
Step 528000
Ar 9.354427e-01 0.000000e+00 0.000000e+00
1
Step 529000
Ar 7.648186e-01 0.000000e+00 0.000000e+00
1
Step 530000
Ar 7.894640e-01 0.000000e+00 0.000000e+00
1
Step 531000
Ar 8.476512e-01 0.000000e+00 0.000000e+00
1
Step 532000
Ar 9.522423e-01 0.000000e+00 0.000000e+00
1
Step 533000
Ar 9.357810e-01 0.000000e+00 0.000000e+00
1
Step 534000
Ar 8.602860e-01 0.000000e+00 0.000000e+00
1
Step 535000
Ar 8.029409e-01 0.000000e+00 0.000000e+00
1
Step 536000
Ar 9.108217e-01 0.000000e+00 0.000000e+00
1
Step 537000
Ar 7.972110e-01 0.000000e+00 0.000000e+00
1
Step 538000
Ar 9.267049e-01 0.000000e+00 0.000000e+00
1
Step 539000
Ar 8.722727e-01 0.000000e+00 0.000000e+00
1
Step 540000
Ar 9.548023e-01 0.000000e+00 0.000000e+00
1
Step 541000
Ar 9.574712e-01 0.000000e+00 0.000000e+00
1
Step 542000
Ar 7.538614e-01 0.000000e+00 0.000000e+00
1
Step 543000
Ar 7.488659e-01 0.000000e+00 0.000000e+00
1
Step 544000
Ar 8.215245e-01 0.000000e+00 0.000000e+00
1
Step 545000
Ar 8.799490e-01 0.000000e+00 0.000000e+00
1
Step 546000
Ar 9.182085e-01 0.000000e+00 0.000000e+00
1
Step 547000
Ar 9.364006e-01 0.000000e+00 0.000000e+00
1
Step 548000
Ar 8.978266e-01 0.000000e+00 0.000000e+00
1
Step 549000
Ar 8.961561e-01 0.000000e+00 0.000000e+00
1
Step 550000
Ar 8.422212e-01 0.000000e+00 0.000000e+00
1
Step 551000
Ar 9.346653e-01 0.000000e+00 0.000000e+00
1
Step 552000
Ar 9.114876e-01 0.000000e+00 0.000000e+00
1
Step 553000
Ar 9.114480e-01 0.000000e+00 0.000000e+00
1
Step 554000
Ar 9.135626e-01 0.000000e+00 0.000000e+00
1
Step 555000
Ar 9.095404e-01 0.000000e+00 0.000000e+00
1
Step 556000
Ar 9.258769e-01 0.000000e+00 0.000000e+00
1
Step 557000
Ar 9.540300e-01 0.000000e+00 0.000000e+00
1
Step 558000
Ar 8.349224e-01 0.000000e+00 0.000000e+00
1
Step 559000
Ar 9.532696e-01 0.000000e+00 0.000000e+00
1
Step 560000
Ar 8.384690e-01 0.000000e+00 0.000000e+00
1
Step 561000
Ar 9.359773e-01 0.000000e+00 0.000000e+00
1
Step 562000
Ar 7.793708e-01 0.000000e+00 0.000000e+00
1
Step 563000
Ar 9.095551e-01 0.000000e+00 0.000000e+00
1
Step 564000
Ar 9.141924e-01 0.000000e+00 0.000000e+00
1
Step 565000
Ar 8.771096e-01 0.000000e+00 0.000000e+00
1
Step 566000
Ar 8.595568e-01 0.000000e+00 0.000000e+00
1
Step 567000
Ar 9.532787e-01 0.000000e+00 0.000000e+00
1
Step 568000
Ar 8.225210e-01 0.000000e+00 0.000000e+00
1
Step 569000
Ar 9.017030e-01 0.000000e+00 0.000000e+00
1
Step 570000
Ar 9.126038e-01 0.000000e+00 0.000000e+00
1
Step 571000
Ar 8.759067e-01 0.000000e+00 0.000000e+00
1
Step 572000
Ar 9.128861e-01 0.000000e+00 0.000000e+00
1
Step 573000
Ar 8.735538e-01 0.000000e+00 0.000000e+00
1
Step 574000
Ar 7.213074e-01 0.000000e+00 0.000000e+00
1
Step 575000
Ar 9.394737e-01 0.000000e+00 0.000000e+00
1
Step 576000
Ar 9.568285e-01 0.000000e+00 0.000000e+00
1
Step 577000
Ar 8.098028e-01 0.000000e+00 0.000000e+00
1
Step 578000
Ar 9.166636e-01 0.000000e+00 0.000000e+00
1
Step 579000
Ar 9.379222e-01 0.000000e+00 0.000000e+00
1
Step 580000
Ar 8.851445e-01 0.000000e+00 0.000000e+00
1
Step 581000
Ar 7.615426e-01 0.000000e+00 0.000000e+00
1
Step 582000
Ar 8.874631e-01 0.000000e+00 0.000000e+00
1
Step 583000
Ar 8.209168e-01 0.000000e+00 0.000000e+00
1
Step 584000
Ar 8.761650e-01 0.000000e+00 0.000000e+00
1
Step 585000
Ar 8.368797e-01 0.000000e+00 0.000000e+00
1
Step 586000
Ar 8.589815e-01 0.000000e+00 0.000000e+00
1
Step 587000
Ar 9.333148e-01 0.000000e+00 0.000000e+00
1
Step 588000
Ar 8.180274e-01 0.000000e+00 0.000000e+00
1
Step 589000
Ar 8.595523e-01 0.000000e+00 0.000000e+00
1
Step 590000
Ar 9.092015e-01 0.000000e+00 0.000000e+00
1
Step 591000
Ar 9.397014e-01 0.000000e+00 0.000000e+00
1
Step 592000
Ar 8.678243e-01 0.000000e+00 0.000000e+00
1
Step 593000
Ar 8.791103e-01 0.000000e+00 0.000000e+00
1
Step 594000
Ar 8.800555e-01 0.000000e+00 0.000000e+00
1
Step 595000
Ar 9.181681e-01 0.000000e+00 0.000000e+00
1
Step 596000
Ar 9.623249e-01 0.000000e+00 0.000000e+00
1
Step 597000
Ar 7.646782e-01 0.000000e+00 0.000000e+00
1
Step 598000
Ar 9.189532e-01 0.000000e+00 0.000000e+00
1
Step 599000
Ar 5.108423e-01 0.000000e+00 0.000000e+00
1
Step 600000
Ar 9.348163e-01 0.000000e+00 0.000000e+00
1
Step 601000
Ar 9.550099e-01 0.000000e+00 0.000000e+00
1
Step 602000
Ar 7.596740e-01 0.000000e+00 0.000000e+00
1
Step 603000
Ar 8.899161e-01 0.000000e+00 0.000000e+00
1
Step 604000
Ar 8.812275e-01 0.000000e+00 0.000000e+00
1
Step 605000
Ar 8.110156e-01 0.000000e+00 0.000000e+00
1
Step 606000
Ar 7.288735e-01 0.000000e+00 0.000000e+00
1
Step 607000
Ar 9.066815e-01 0.000000e+00 0.000000e+00
1
Step 608000
Ar 9.301991e-01 0.000000e+00 0.000000e+00
1
Step 609000
Ar 9.093543e-01 0.000000e+00 0.000000e+00
1
Step 610000
Ar 8.051193e-01 0.000000e+00 0.000000e+00
1
Step 611000
Ar 9.204233e-01 0.000000e+00 0.000000e+00
1
Step 612000
Ar 9.377407e-01 0.000000e+00 0.000000e+00
1
Step 613000
Ar 9.131938e-01 0.000000e+00 0.000000e+00
1
Step 614000
Ar 8.330912e-01 0.000000e+00 0.000000e+00
1
Step 615000
Ar 9.260635e-01 0.000000e+00 0.000000e+00
1
Step 616000
Ar 8.556056e-01 0.000000e+00 0.000000e+00
1
Step 617000
Ar 9.108442e-01 0.000000e+00 0.000000e+00
1
Step 618000
Ar 8.815346e-01 0.000000e+00 0.000000e+00
1
Step 619000
Ar 8.313897e-01 0.000000e+00 0.000000e+00
1
Step 620000
Ar 7.958988e-01 0.000000e+00 0.000000e+00
1
Step 621000
Ar 9.565456e-01 0.000000e+00 0.000000e+00
1
Step 622000
Ar 8.460699e-01 0.000000e+00 0.000000e+00
1
Step 623000
Ar 9.543131e-01 0.000000e+00 0.000000e+00
1
Step 624000
Ar 7.844946e-01 0.000000e+00 0.000000e+00
1
Step 625000
Ar 9.214454e-01 0.000000e+00 0.000000e+00
1
Step 626000
Ar 7.498746e-01 0.000000e+00 0.000000e+00
1
Step 627000
Ar 8.881376e-01 0.000000e+00 0.000000e+00
1
Step 628000
Ar 8.502711e-01 0.000000e+00 0.000000e+00
1
Step 629000
Ar 8.935472e-01 0.000000e+00 0.000000e+00
1
Step 630000
Ar 7.364847e-01 0.000000e+00 0.000000e+00
1
Step 631000
Ar 8.827240e-01 0.000000e+00 0.000000e+00
1
Step 632000
Ar 9.002244e-01 0.000000e+00 0.000000e+00
1
Step 633000
Ar 8.886632e-01 0.000000e+00 0.000000e+00
1
Step 634000
Ar 9.150968e-01 0.000000e+00 0.000000e+00
1
Step 635000
Ar 9.485293e-01 0.000000e+00 0.000000e+00
1
Step 636000
Ar 8.638564e-01 0.000000e+00 0.000000e+00
1
Step 637000
Ar 7.906318e-01 0.000000e+00 0.000000e+00
1
Step 638000
Ar 8.642365e-01 0.000000e+00 0.000000e+00
1
Step 639000
Ar 8.143595e-01 0.000000e+00 0.000000e+00
1
Step 640000
Ar 8.291344e-01 0.000000e+00 0.000000e+00
1
Step 641000
Ar 9.141552e-01 0.000000e+00 0.000000e+00
1
Step 642000
Ar 9.266856e-01 0.000000e+00 0.000000e+00
1
Step 643000
Ar 8.192466e-01 0.000000e+00 0.000000e+00
1
Step 644000
Ar 8.967817e-01 0.000000e+00 0.000000e+00
1
Step 645000
Ar 8.036423e-01 0.000000e+00 0.000000e+00
1
Step 646000
Ar 7.992790e-01 0.000000e+00 0.000000e+00
1
Step 647000
Ar 7.370088e-01 0.000000e+00 0.000000e+00
1
Step 648000
Ar 8.337399e-01 0.000000e+00 0.000000e+00
1
Step 649000
Ar 8.043213e-01 0.000000e+00 0.000000e+00
1
Step 650000
Ar 8.487335e-01 0.000000e+00 0.000000e+00
1
Step 651000
Ar 8.560518e-01 0.000000e+00 0.000000e+00
1
Step 652000
Ar 9.118836e-01 0.000000e+00 0.000000e+00
1
Step 653000
Ar 8.554604e-01 0.000000e+00 0.000000e+00
1
Step 654000
Ar 7.472830e-01 0.000000e+00 0.000000e+00
1
Step 655000
Ar 7.927697e-01 0.000000e+00 0.000000e+00
1
Step 656000
Ar 8.472432e-01 0.000000e+00 0.000000e+00
1
Step 657000
Ar 8.381718e-01 0.000000e+00 0.000000e+00
1
Step 658000
Ar 7.138139e-01 0.000000e+00 0.000000e+00
1
Step 659000
Ar 8.124015e-01 0.000000e+00 0.000000e+00
1
Step 660000
Ar 8.478390e-01 0.000000e+00 0.000000e+00
1
Step 661000
Ar 8.985830e-01 0.000000e+00 0.000000e+00
1
Step 662000
Ar 8.997630e-01 0.000000e+00 0.000000e+00
1
Step 663000
Ar 9.250288e-01 0.000000e+00 0.000000e+00
1
Step 664000
Ar 8.351039e-01 0.000000e+00 0.000000e+00
1
Step 665000
Ar 8.439110e-01 0.000000e+00 0.000000e+00
1
Step 666000
Ar 8.782487e-01 0.000000e+00 0.000000e+00
1
Step 667000
Ar 8.752653e-01 0.000000e+00 0.000000e+00
1
Step 668000
Ar 9.118737e-01 0.000000e+00 0.000000e+00
1
Step 669000
Ar 7.237828e-01 0.000000e+00 0.000000e+00
1
Step 670000
Ar 7.914005e-01 0.000000e+00 0.000000e+00
1
Step 671000
Ar 9.419063e-01 0.000000e+00 0.000000e+00
1
Step 672000
Ar 9.022907e-01 0.000000e+00 0.000000e+00
1
Step 673000
Ar 6.793743e-01 0.000000e+00 0.000000e+00
1
Step 674000
Ar 8.851226e-01 0.000000e+00 0.000000e+00
1
Step 675000
Ar 9.126236e-01 0.000000e+00 0.000000e+00
1
Step 676000
Ar 9.045454e-01 0.000000e+00 0.000000e+00
1
Step 677000
Ar 9.119142e-01 0.000000e+00 0.000000e+00
1
Step 678000
Ar 8.596990e-01 0.000000e+00 0.000000e+00
1
Step 679000
Ar 9.210615e-01 0.000000e+00 0.000000e+00
1
Step 680000
Ar 8.725101e-01 0.000000e+00 0.000000e+00
1
Step 681000
Ar 9.000759e-01 0.000000e+00 0.000000e+00
1
Step 682000
Ar 7.947513e-01 0.000000e+00 0.000000e+00
1
Step 683000
Ar 7.293608e-01 0.000000e+00 0.000000e+00
1
Step 684000
Ar 9.350229e-01 0.000000e+00 0.000000e+00
1
Step 685000
Ar 7.510018e-01 0.000000e+00 0.000000e+00
1
Step 686000
Ar 8.995233e-01 0.000000e+00 0.000000e+00
1
Step 687000
Ar 8.586289e-01 0.000000e+00 0.000000e+00
1
Step 688000
Ar 7.953016e-01 0.000000e+00 0.000000e+00
1
Step 689000
Ar 9.371522e-01 0.000000e+00 0.000000e+00
1
Step 690000
Ar 3.497295e-01 0.000000e+00 0.000000e+00
1
Step 691000
Ar 8.854772e-01 0.000000e+00 0.000000e+00
1
Step 692000
Ar 8.736581e-01 0.000000e+00 0.000000e+00
1
Step 693000
Ar 8.968128e-01 0.000000e+00 0.000000e+00
1
Step 694000
Ar 8.943559e-01 0.000000e+00 0.000000e+00
1
Step 695000
Ar 9.085165e-01 0.000000e+00 0.000000e+00
1
Step 696000
Ar 8.570010e-01 0.000000e+00 0.000000e+00
1
Step 697000
Ar 9.061667e-01 0.000000e+00 0.000000e+00
1
Step 698000
Ar 9.234580e-01 0.000000e+00 0.000000e+00
1
Step 699000
Ar 9.024283e-01 0.000000e+00 0.000000e+00
1
Step 700000
Ar 8.994100e-01 0.000000e+00 0.000000e+00
1
Step 701000
Ar 9.096925e-01 0.000000e+00 0.000000e+00
1
Step 702000
Ar 8.113337e-01 0.000000e+00 0.000000e+00
1
Step 703000
Ar 9.059836e-01 0.000000e+00 0.000000e+00
1
Step 704000
Ar 8.728367e-01 0.000000e+00 0.000000e+00
1
Step 705000
Ar 9.094578e-01 0.000000e+00 0.000000e+00
1
Step 706000
Ar 9.330658e-01 0.000000e+00 0.000000e+00
1
Step 707000
Ar 7.241768e-01 0.000000e+00 0.000000e+00
1
Step 708000
Ar 7.435223e-01 0.000000e+00 0.000000e+00
1
Step 709000
Ar 6.819629e-01 0.000000e+00 0.000000e+00
1
Step 710000
Ar 8.704363e-01 0.000000e+00 0.000000e+00
1
Step 711000
Ar 9.599917e-01 0.000000e+00 0.000000e+00
1
Step 712000
Ar 7.751211e-01 0.000000e+00 0.000000e+00
1
Step 713000
Ar 9.500877e-01 0.000000e+00 0.000000e+00
1
Step 714000
Ar 9.113501e-01 0.000000e+00 0.000000e+00
1
Step 715000
Ar 8.915668e-01 0.000000e+00 0.000000e+00
1
Step 716000
Ar 9.249988e-01 0.000000e+00 0.000000e+00
1
Step 717000
Ar 8.605015e-01 0.000000e+00 0.000000e+00
1
Step 718000
Ar 8.727974e-01 0.000000e+00 0.000000e+00
1
Step 719000
Ar 9.193801e-01 0.000000e+00 0.000000e+00
1
Step 720000
Ar 8.351170e-01 0.000000e+00 0.000000e+00
1
Step 721000
Ar 8.984614e-01 0.000000e+00 0.000000e+00
1
Step 722000
Ar 8.787760e-01 0.000000e+00 0.000000e+00
1
Step 723000
Ar 7.743961e-01 0.000000e+00 0.000000e+00
1
Step 724000
Ar 8.683888e-01 0.000000e+00 0.000000e+00
1
Step 725000
Ar 7.722455e-01 0.000000e+00 0.000000e+00
1
Step 726000
Ar 9.018169e-01 0.000000e+00 0.000000e+00
1
Step 727000
Ar 9.180454e-01 0.000000e+00 0.000000e+00
1
Step 728000
Ar 9.430767e-01 0.000000e+00 0.000000e+00
1
Step 729000
Ar 8.536892e-01 0.000000e+00 0.000000e+00
1
Step 730000
Ar 8.188986e-01 0.000000e+00 0.000000e+00
1
Step 731000
Ar 9.306581e-01 0.000000e+00 0.000000e+00
1
Step 732000
Ar 9.200477e-01 0.000000e+00 0.000000e+00
1
Step 733000
Ar 8.285524e-01 0.000000e+00 0.000000e+00
1
Step 734000
Ar 9.061455e-01 0.000000e+00 0.000000e+00
1
Step 735000
Ar 8.948493e-01 0.000000e+00 0.000000e+00
1
Step 736000
Ar 6.090227e-01 0.000000e+00 0.000000e+00
1
Step 737000
Ar 8.181282e-01 0.000000e+00 0.000000e+00
1
Step 738000
Ar 8.999411e-01 0.000000e+00 0.000000e+00
1
Step 739000
Ar 8.791884e-01 0.000000e+00 0.000000e+00
1
Step 740000
Ar 8.721020e-01 0.000000e+00 0.000000e+00
1
Step 741000
Ar 7.711683e-01 0.000000e+00 0.000000e+00
1
Step 742000
Ar 9.209902e-01 0.000000e+00 0.000000e+00
1
Step 743000
Ar 9.515953e-01 0.000000e+00 0.000000e+00
1
Step 744000
Ar 9.058120e-01 0.000000e+00 0.000000e+00
1
Step 745000
Ar 7.957770e-01 0.000000e+00 0.000000e+00
1
Step 746000
Ar 8.852338e-01 0.000000e+00 0.000000e+00
1
Step 747000
Ar 7.117690e-01 0.000000e+00 0.000000e+00
1
Step 748000
Ar 9.327653e-01 0.000000e+00 0.000000e+00
1
Step 749000
Ar 9.512738e-01 0.000000e+00 0.000000e+00
1
Step 750000
Ar 8.707272e-01 0.000000e+00 0.000000e+00
1
Step 751000
Ar 7.664408e-01 0.000000e+00 0.000000e+00
1
Step 752000
Ar 9.105322e-01 0.000000e+00 0.000000e+00
1
Step 753000
Ar 9.024670e-01 0.000000e+00 0.000000e+00
1
Step 754000
Ar 9.441767e-01 0.000000e+00 0.000000e+00
1
Step 755000
Ar 9.561222e-01 0.000000e+00 0.000000e+00
1
Step 756000
Ar 8.804049e-01 0.000000e+00 0.000000e+00
1
Step 757000
Ar 9.323309e-01 0.000000e+00 0.000000e+00
1
Step 758000
Ar 8.706547e-01 0.000000e+00 0.000000e+00
1
Step 759000
Ar 7.786057e-01 0.000000e+00 0.000000e+00
1
Step 760000
Ar 5.746670e-01 0.000000e+00 0.000000e+00
1
Step 761000
Ar 9.171956e-01 0.000000e+00 0.000000e+00
1
Step 762000
Ar 9.408758e-01 0.000000e+00 0.000000e+00
1
Step 763000
Ar 9.351313e-01 0.000000e+00 0.000000e+00
1
Step 764000
Ar 9.434863e-01 0.000000e+00 0.000000e+00
1
Step 765000
Ar 8.626943e-01 0.000000e+00 0.000000e+00
1
Step 766000
Ar 8.173871e-01 0.000000e+00 0.000000e+00
1
Step 767000
Ar 9.225051e-01 0.000000e+00 0.000000e+00
1
Step 768000
Ar 9.435844e-01 0.000000e+00 0.000000e+00
1
Step 769000
Ar 8.571813e-01 0.000000e+00 0.000000e+00
1
Step 770000
Ar 9.442928e-01 0.000000e+00 0.000000e+00
1
Step 771000
Ar 8.914360e-01 0.000000e+00 0.000000e+00
1
Step 772000
Ar 9.247326e-01 0.000000e+00 0.000000e+00
1
Step 773000
Ar 9.139325e-01 0.000000e+00 0.000000e+00
1
Step 774000
Ar 9.017593e-01 0.000000e+00 0.000000e+00
1
Step 775000
Ar 8.591071e-01 0.000000e+00 0.000000e+00
1
Step 776000
Ar 9.107304e-01 0.000000e+00 0.000000e+00
1
Step 777000
Ar 8.920591e-01 0.000000e+00 0.000000e+00
1
Step 778000
Ar 9.431489e-01 0.000000e+00 0.000000e+00
1
Step 779000
Ar 9.082079e-01 0.000000e+00 0.000000e+00
1
Step 780000
Ar 8.500135e-01 0.000000e+00 0.000000e+00
1
Step 781000
Ar 9.177417e-01 0.000000e+00 0.000000e+00
1
Step 782000
Ar 9.230695e-01 0.000000e+00 0.000000e+00
1
Step 783000
Ar 9.085239e-01 0.000000e+00 0.000000e+00
1
Step 784000
Ar 8.893917e-01 0.000000e+00 0.000000e+00
1
Step 785000
Ar 8.416643e-01 0.000000e+00 0.000000e+00
1
Step 786000
Ar 7.253195e-01 0.000000e+00 0.000000e+00
1
Step 787000
Ar 8.437076e-01 0.000000e+00 0.000000e+00
1
Step 788000
Ar 9.427957e-01 0.000000e+00 0.000000e+00
1
Step 789000
Ar 9.305680e-01 0.000000e+00 0.000000e+00
1
Step 790000
Ar 8.475865e-01 0.000000e+00 0.000000e+00
1
Step 791000
Ar 9.422531e-01 0.000000e+00 0.000000e+00
1
Step 792000
Ar 8.737340e-01 0.000000e+00 0.000000e+00
1
Step 793000
Ar 5.460569e-01 0.000000e+00 0.000000e+00
1
Step 794000
Ar 9.398846e-01 0.000000e+00 0.000000e+00
1
Step 795000
Ar 8.600814e-01 0.000000e+00 0.000000e+00
1
Step 796000
Ar 9.555835e-01 0.000000e+00 0.000000e+00
1
Step 797000
Ar 9.157053e-01 0.000000e+00 0.000000e+00
1
Step 798000
Ar 8.842562e-01 0.000000e+00 0.000000e+00
1
Step 799000
Ar 8.763174e-01 0.000000e+00 0.000000e+00
1
Step 800000
Ar 6.213309e-01 0.000000e+00 0.000000e+00
1
Step 801000
Ar 9.268408e-01 0.000000e+00 0.000000e+00
1
Step 802000
Ar 9.395581e-01 0.000000e+00 0.000000e+00
1
Step 803000
Ar 9.350043e-01 0.000000e+00 0.000000e+00
1
Step 804000
Ar 8.609961e-01 0.000000e+00 0.000000e+00
1
Step 805000
Ar 7.980312e-01 0.000000e+00 0.000000e+00
1
Step 806000
Ar 9.170819e-01 0.000000e+00 0.000000e+00
1
Step 807000
Ar 8.030512e-01 0.000000e+00 0.000000e+00
1
Step 808000
Ar 7.904607e-01 0.000000e+00 0.000000e+00
1
Step 809000
Ar 9.456861e-01 0.000000e+00 0.000000e+00
1
Step 810000
Ar 9.561189e-01 0.000000e+00 0.000000e+00
1
Step 811000
Ar 8.923635e-01 0.000000e+00 0.000000e+00
1
Step 812000
Ar 8.462270e-01 0.000000e+00 0.000000e+00
1
Step 813000
Ar 7.352097e-01 0.000000e+00 0.000000e+00
1
Step 814000
Ar 9.017971e-01 0.000000e+00 0.000000e+00
1
Step 815000
Ar 7.368992e-01 0.000000e+00 0.000000e+00
1
Step 816000
Ar 7.725628e-01 0.000000e+00 0.000000e+00
1
Step 817000
Ar 7.623301e-01 0.000000e+00 0.000000e+00
1
Step 818000
Ar 9.121440e-01 0.000000e+00 0.000000e+00
1
Step 819000
Ar 7.910668e-01 0.000000e+00 0.000000e+00
1
Step 820000
Ar 8.204451e-01 0.000000e+00 0.000000e+00
1
Step 821000
Ar 8.862109e-01 0.000000e+00 0.000000e+00
1
Step 822000
Ar 8.117210e-01 0.000000e+00 0.000000e+00
1
Step 823000
Ar 9.211216e-01 0.000000e+00 0.000000e+00
1
Step 824000
Ar 8.227378e-01 0.000000e+00 0.000000e+00
1
Step 825000
Ar 9.281404e-01 0.000000e+00 0.000000e+00
1
Step 826000
Ar 7.967079e-01 0.000000e+00 0.000000e+00
1
Step 827000
Ar 8.677668e-01 0.000000e+00 0.000000e+00
1
Step 828000
Ar 7.487116e-01 0.000000e+00 0.000000e+00
1
Step 829000
Ar 8.934621e-01 0.000000e+00 0.000000e+00
1
Step 830000
Ar 7.787333e-01 0.000000e+00 0.000000e+00
1
Step 831000
Ar 9.254101e-01 0.000000e+00 0.000000e+00
1
Step 832000
Ar 9.040454e-01 0.000000e+00 0.000000e+00
1
Step 833000
Ar 9.194522e-01 0.000000e+00 0.000000e+00
1
Step 834000
Ar 9.203810e-01 0.000000e+00 0.000000e+00
1
Step 835000
Ar 8.876972e-01 0.000000e+00 0.000000e+00
1
Step 836000
Ar 8.829284e-01 0.000000e+00 0.000000e+00
1
Step 837000
Ar 8.954510e-01 0.000000e+00 0.000000e+00
1
Step 838000
Ar 9.184385e-01 0.000000e+00 0.000000e+00
1
Step 839000
Ar 9.431249e-01 0.000000e+00 0.000000e+00
1
Step 840000
Ar 7.882301e-01 0.000000e+00 0.000000e+00
1
Step 841000
Ar 7.179407e-01 0.000000e+00 0.000000e+00
1
Step 842000
Ar 8.993039e-01 0.000000e+00 0.000000e+00
1
Step 843000
Ar 8.643035e-01 0.000000e+00 0.000000e+00
1
Step 844000
Ar 8.927966e-01 0.000000e+00 0.000000e+00
1
Step 845000
Ar 8.705061e-01 0.000000e+00 0.000000e+00
1
Step 846000
Ar 8.721587e-01 0.000000e+00 0.000000e+00
1
Step 847000
Ar 9.454264e-01 0.000000e+00 0.000000e+00
1
Step 848000
Ar 9.206647e-01 0.000000e+00 0.000000e+00
1
Step 849000
Ar 8.140428e-01 0.000000e+00 0.000000e+00
1
Step 850000
Ar 9.514405e-01 0.000000e+00 0.000000e+00
1
Step 851000
Ar 8.043158e-01 0.000000e+00 0.000000e+00
1
Step 852000
Ar 9.280359e-01 0.000000e+00 0.000000e+00
1
Step 853000
Ar 9.429154e-01 0.000000e+00 0.000000e+00
1
Step 854000
Ar 8.664740e-01 0.000000e+00 0.000000e+00
1
Step 855000
Ar 8.647630e-01 0.000000e+00 0.000000e+00
1
Step 856000
Ar 8.657052e-01 0.000000e+00 0.000000e+00
1
Step 857000
Ar 9.586648e-01 0.000000e+00 0.000000e+00
1
Step 858000
Ar 9.585883e-01 0.000000e+00 0.000000e+00
1
Step 859000
Ar 9.270134e-01 0.000000e+00 0.000000e+00
1
Step 860000
Ar 8.943185e-01 0.000000e+00 0.000000e+00
1
Step 861000
Ar 6.931549e-01 0.000000e+00 0.000000e+00
1
Step 862000
Ar 7.676926e-01 0.000000e+00 0.000000e+00
1
Step 863000
Ar 9.265813e-01 0.000000e+00 0.000000e+00
1
Step 864000
Ar 9.347877e-01 0.000000e+00 0.000000e+00
1
Step 865000
Ar 8.912629e-01 0.000000e+00 0.000000e+00
1
Step 866000
Ar 8.895675e-01 0.000000e+00 0.000000e+00
1
Step 867000
Ar 9.219670e-01 0.000000e+00 0.000000e+00
1
Step 868000
Ar 8.165561e-01 0.000000e+00 0.000000e+00
1
Step 869000
Ar 7.974371e-01 0.000000e+00 0.000000e+00
1
Step 870000
Ar 9.244449e-01 0.000000e+00 0.000000e+00
1
Step 871000
Ar 8.899183e-01 0.000000e+00 0.000000e+00
1
Step 872000
Ar 8.165886e-01 0.000000e+00 0.000000e+00
1
Step 873000
Ar 9.197729e-01 0.000000e+00 0.000000e+00
1
Step 874000
Ar 7.695227e-01 0.000000e+00 0.000000e+00
1
Step 875000
Ar 9.421755e-01 0.000000e+00 0.000000e+00
1
Step 876000
Ar 7.690842e-01 0.000000e+00 0.000000e+00
1
Step 877000
Ar 9.356094e-01 0.000000e+00 0.000000e+00
1
Step 878000
Ar 8.605078e-01 0.000000e+00 0.000000e+00
1
Step 879000
Ar 7.751813e-01 0.000000e+00 0.000000e+00
1
Step 880000
Ar 9.148943e-01 0.000000e+00 0.000000e+00
1
Step 881000
Ar 8.930791e-01 0.000000e+00 0.000000e+00
1
Step 882000
Ar 8.972853e-01 0.000000e+00 0.000000e+00
1
Step 883000
Ar 6.796916e-01 0.000000e+00 0.000000e+00
1
Step 884000
Ar 9.444128e-01 0.000000e+00 0.000000e+00
1
Step 885000
Ar 7.936302e-01 0.000000e+00 0.000000e+00
1
Step 886000
Ar 8.527689e-01 0.000000e+00 0.000000e+00
1
Step 887000
Ar 8.337796e-01 0.000000e+00 0.000000e+00
1
Step 888000
Ar 8.795965e-01 0.000000e+00 0.000000e+00
1
Step 889000
Ar 8.508575e-01 0.000000e+00 0.000000e+00
1
Step 890000
Ar 8.398181e-01 0.000000e+00 0.000000e+00
1
Step 891000
Ar 8.787732e-01 0.000000e+00 0.000000e+00
1
Step 892000
Ar 9.358007e-01 0.000000e+00 0.000000e+00
1
Step 893000
Ar 8.963088e-01 0.000000e+00 0.000000e+00
1
Step 894000
Ar 7.934288e-01 0.000000e+00 0.000000e+00
1
Step 895000
Ar 9.458941e-01 0.000000e+00 0.000000e+00
1
Step 896000
Ar 9.491912e-01 0.000000e+00 0.000000e+00
1
Step 897000
Ar 8.833894e-01 0.000000e+00 0.000000e+00
1
Step 898000
Ar 8.748140e-01 0.000000e+00 0.000000e+00
1
Step 899000
Ar 8.068058e-01 0.000000e+00 0.000000e+00
1
Step 900000
Ar 8.269768e-01 0.000000e+00 0.000000e+00
1
Step 901000
Ar 8.595467e-01 0.000000e+00 0.000000e+00
1
Step 902000
Ar 9.450160e-01 0.000000e+00 0.000000e+00
1
Step 903000
Ar 7.012707e-01 0.000000e+00 0.000000e+00
1
Step 904000
Ar 8.511240e-01 0.000000e+00 0.000000e+00
1
Step 905000
Ar 9.211011e-01 0.000000e+00 0.000000e+00
1
Step 906000
Ar 8.697567e-01 0.000000e+00 0.000000e+00
1
Step 907000
Ar 8.655039e-01 0.000000e+00 0.000000e+00
1
Step 908000
Ar 9.192734e-01 0.000000e+00 0.000000e+00
1
Step 909000
Ar 9.584253e-01 0.000000e+00 0.000000e+00
1
Step 910000
Ar 7.328017e-01 0.000000e+00 0.000000e+00
1
Step 911000
Ar 9.428440e-01 0.000000e+00 0.000000e+00
1
Step 912000
Ar 7.565581e-01 0.000000e+00 0.000000e+00
1
Step 913000
Ar 9.105503e-01 0.000000e+00 0.000000e+00
1
Step 914000
Ar 8.119144e-01 0.000000e+00 0.000000e+00
1
Step 915000
Ar 7.545662e-01 0.000000e+00 0.000000e+00
1
Step 916000
Ar 8.300310e-01 0.000000e+00 0.000000e+00
1
Step 917000
Ar 9.529396e-01 0.000000e+00 0.000000e+00
1
Step 918000
Ar 6.761932e-01 0.000000e+00 0.000000e+00
1
Step 919000
Ar 9.081006e-01 0.000000e+00 0.000000e+00
1
Step 920000
Ar 9.265555e-01 0.000000e+00 0.000000e+00
1
Step 921000
Ar 9.425225e-01 0.000000e+00 0.000000e+00
1
Step 922000
Ar 8.722750e-01 0.000000e+00 0.000000e+00
1
Step 923000
Ar 8.838023e-01 0.000000e+00 0.000000e+00
1
Step 924000
Ar 8.797663e-01 0.000000e+00 0.000000e+00
1
Step 925000
Ar 9.509225e-01 0.000000e+00 0.000000e+00
1
Step 926000
Ar 9.097806e-01 0.000000e+00 0.000000e+00
1
Step 927000
Ar 8.818688e-01 0.000000e+00 0.000000e+00
1
Step 928000
Ar 9.513660e-01 0.000000e+00 0.000000e+00
1
Step 929000
Ar 8.796678e-01 0.000000e+00 0.000000e+00
1
Step 930000
Ar 8.899942e-01 0.000000e+00 0.000000e+00
1
Step 931000
Ar 8.788386e-01 0.000000e+00 0.000000e+00
1
Step 932000
Ar 8.526073e-01 0.000000e+00 0.000000e+00
1
Step 933000
Ar 9.129549e-01 0.000000e+00 0.000000e+00
1
Step 934000
Ar 8.703021e-01 0.000000e+00 0.000000e+00
1
Step 935000
Ar 7.760135e-01 0.000000e+00 0.000000e+00
1
Step 936000
Ar 8.804605e-01 0.000000e+00 0.000000e+00
1
Step 937000
Ar 9.042456e-01 0.000000e+00 0.000000e+00
1
Step 938000
Ar 9.291756e-01 0.000000e+00 0.000000e+00
1
Step 939000
Ar 9.001223e-01 0.000000e+00 0.000000e+00
1
Step 940000
Ar 9.438803e-01 0.000000e+00 0.000000e+00
1
Step 941000
Ar 8.925389e-01 0.000000e+00 0.000000e+00
1
Step 942000
Ar 9.093336e-01 0.000000e+00 0.000000e+00
1
Step 943000
Ar 8.692277e-01 0.000000e+00 0.000000e+00
1
Step 944000
Ar 9.200463e-01 0.000000e+00 0.000000e+00
1
Step 945000
Ar 9.205060e-01 0.000000e+00 0.000000e+00
1
Step 946000
Ar 7.989790e-01 0.000000e+00 0.000000e+00
1
Step 947000
Ar 8.828449e-01 0.000000e+00 0.000000e+00
1
Step 948000
Ar 9.358710e-01 0.000000e+00 0.000000e+00
1
Step 949000
Ar 8.153258e-01 0.000000e+00 0.000000e+00
1
Step 950000
Ar 8.639151e-01 0.000000e+00 0.000000e+00
1
Step 951000
Ar 9.516458e-01 0.000000e+00 0.000000e+00
1
Step 952000
Ar 9.111058e-01 0.000000e+00 0.000000e+00
1
Step 953000
Ar 8.798763e-01 0.000000e+00 0.000000e+00
1
Step 954000
Ar 8.561450e-01 0.000000e+00 0.000000e+00
1
Step 955000
Ar 9.199847e-01 0.000000e+00 0.000000e+00
1
Step 956000
Ar 8.743003e-01 0.000000e+00 0.000000e+00
1
Step 957000
Ar 9.089794e-01 0.000000e+00 0.000000e+00
1
Step 958000
Ar 9.194728e-01 0.000000e+00 0.000000e+00
1
Step 959000
Ar 8.922783e-01 0.000000e+00 0.000000e+00
1
Step 960000
Ar 8.146941e-01 0.000000e+00 0.000000e+00
1
Step 961000
Ar 8.255269e-01 0.000000e+00 0.000000e+00
1
Step 962000
Ar 7.052231e-01 0.000000e+00 0.000000e+00
1
Step 963000
Ar 8.904101e-01 0.000000e+00 0.000000e+00
1
Step 964000
Ar 9.242758e-01 0.000000e+00 0.000000e+00
1
Step 965000
Ar 9.152937e-01 0.000000e+00 0.000000e+00
1
Step 966000
Ar 9.336951e-01 0.000000e+00 0.000000e+00
1
Step 967000
Ar 9.309114e-01 0.000000e+00 0.000000e+00
1
Step 968000
Ar 8.845008e-01 0.000000e+00 0.000000e+00
1
Step 969000
Ar 9.088857e-01 0.000000e+00 0.000000e+00
1
Step 970000
Ar 8.653921e-01 0.000000e+00 0.000000e+00
1
Step 971000
Ar 9.348929e-01 0.000000e+00 0.000000e+00
1
Step 972000
Ar 9.222295e-01 0.000000e+00 0.000000e+00
1
Step 973000
Ar 8.209827e-01 0.000000e+00 0.000000e+00
1
Step 974000
Ar 8.969117e-01 0.000000e+00 0.000000e+00
1
Step 975000
Ar 7.826226e-01 0.000000e+00 0.000000e+00
1
Step 976000
Ar 9.359440e-01 0.000000e+00 0.000000e+00
1
Step 977000
Ar 9.260112e-01 0.000000e+00 0.000000e+00
1
Step 978000
Ar 9.260307e-01 0.000000e+00 0.000000e+00
1
Step 979000
Ar 9.503929e-01 0.000000e+00 0.000000e+00
1
Step 980000
Ar 8.159829e-01 0.000000e+00 0.000000e+00
1
Step 981000
Ar 8.632215e-01 0.000000e+00 0.000000e+00
1
Step 982000
Ar 8.531584e-01 0.000000e+00 0.000000e+00
1
Step 983000
Ar 9.285735e-01 0.000000e+00 0.000000e+00
1
Step 984000
Ar 9.298467e-01 0.000000e+00 0.000000e+00
1
Step 985000
Ar 8.109122e-01 0.000000e+00 0.000000e+00
1
Step 986000
Ar 9.478288e-01 0.000000e+00 0.000000e+00
1
Step 987000
Ar 8.802465e-01 0.000000e+00 0.000000e+00
1
Step 988000
Ar 9.295856e-01 0.000000e+00 0.000000e+00
1
Step 989000
Ar 8.035869e-01 0.000000e+00 0.000000e+00
1
Step 990000
Ar 9.345274e-01 0.000000e+00 0.000000e+00
1
Step 991000
Ar 8.768138e-01 0.000000e+00 0.000000e+00
1
Step 992000
Ar 8.448686e-01 0.000000e+00 0.000000e+00
1
Step 993000
Ar 8.516383e-01 0.000000e+00 0.000000e+00
1
Step 994000
Ar 9.104153e-01 0.000000e+00 0.000000e+00
1
Step 995000
Ar 8.480199e-01 0.000000e+00 0.000000e+00
1
Step 996000
Ar 7.924264e-01 0.000000e+00 0.000000e+00
1
Step 997000
Ar 9.364065e-01 0.000000e+00 0.000000e+00
1
Step 998000
Ar 9.288336e-01 0.000000e+00 0.000000e+00
1
Step 999000
Ar 9.290210e-01 0.000000e+00 0.000000e+00
