1
Step 120000
Ar 9.206556e-01 0.000000e+00 0.000000e+00
1
Step 121000
Ar 9.391133e-01 0.000000e+00 0.000000e+00
1
Step 122000
Ar 8.954299e-01 0.000000e+00 0.000000e+00
1
Step 123000
Ar 1.053268e+00 0.000000e+00 0.000000e+00
1
Step 124000
Ar 9.471272e-01 0.000000e+00 0.000000e+00
1
Step 125000
Ar 9.473260e-01 0.000000e+00 0.000000e+00
1
Step 126000
Ar 9.881515e-01 0.000000e+00 0.000000e+00
1
Step 127000
Ar 7.798687e-01 0.000000e+00 0.000000e+00
1
Step 128000
Ar 1.026885e+00 0.000000e+00 0.000000e+00
1
Step 129000
Ar 8.976204e-01 0.000000e+00 0.000000e+00
1
Step 130000
Ar 1.155278e+00 0.000000e+00 0.000000e+00
1
Step 131000
Ar 9.004471e-01 0.000000e+00 0.000000e+00
1
Step 132000
Ar 1.089632e+00 0.000000e+00 0.000000e+00
1
Step 133000
Ar 1.191665e+00 0.000000e+00 0.000000e+00
1
Step 134000
Ar 7.525820e-01 0.000000e+00 0.000000e+00
1
Step 135000
Ar 1.128332e+00 0.000000e+00 0.000000e+00
1
Step 136000
Ar 9.787711e-01 0.000000e+00 0.000000e+00
1
Step 137000
Ar 1.098436e+00 0.000000e+00 0.000000e+00
1
Step 138000
Ar 7.573463e-01 0.000000e+00 0.000000e+00
1
Step 139000
Ar 1.011232e+00 0.000000e+00 0.000000e+00
1
Step 140000
Ar 9.144103e-01 0.000000e+00 0.000000e+00
1
Step 141000
Ar 8.766033e-01 0.000000e+00 0.000000e+00
1
Step 142000
Ar 9.962057e-01 0.000000e+00 0.000000e+00
1
Step 143000
Ar 9.857397e-01 0.000000e+00 0.000000e+00
1
Step 144000
Ar 1.028411e+00 0.000000e+00 0.000000e+00
1
Step 145000
Ar 9.409985e-01 0.000000e+00 0.000000e+00
1
Step 146000
Ar 8.581670e-01 0.000000e+00 0.000000e+00
1
Step 147000
Ar 1.176967e+00 0.000000e+00 0.000000e+00
1
Step 148000
Ar 1.051880e+00 0.000000e+00 0.000000e+00
1
Step 149000
Ar 1.044069e+00 0.000000e+00 0.000000e+00
1
Step 150000
Ar 1.015454e+00 0.000000e+00 0.000000e+00
1
Step 151000
Ar 8.065075e-01 0.000000e+00 0.000000e+00
1
Step 152000
Ar 8.701563e-01 0.000000e+00 0.000000e+00
1
Step 153000
Ar 1.099421e+00 0.000000e+00 0.000000e+00
1
Step 154000
Ar 1.084605e+00 0.000000e+00 0.000000e+00
1
Step 155000
Ar 1.034856e+00 0.000000e+00 0.000000e+00
1
Step 156000
Ar 9.392323e-01 0.000000e+00 0.000000e+00
1
Step 157000
Ar 9.071302e-01 0.000000e+00 0.000000e+00
1
Step 158000
Ar 1.028524e+00 0.000000e+00 0.000000e+00
1
Step 159000
Ar 9.867224e-01 0.000000e+00 0.000000e+00
1
Step 160000
Ar 9.867986e-01 0.000000e+00 0.000000e+00
1
Step 161000
Ar 8.235148e-01 0.000000e+00 0.000000e+00
1
Step 162000
Ar 8.920562e-01 0.000000e+00 0.000000e+00
1
Step 163000
Ar 8.789446e-01 0.000000e+00 0.000000e+00
1
Step 164000
Ar 9.755805e-01 0.000000e+00 0.000000e+00
1
Step 165000
Ar 1.016148e+00 0.000000e+00 0.000000e+00
1
Step 166000
Ar 1.049897e+00 0.000000e+00 0.000000e+00
1
Step 167000
Ar 9.724498e-01 0.000000e+00 0.000000e+00
1
Step 168000
Ar 8.252571e-01 0.000000e+00 0.000000e+00
1
Step 169000
Ar 7.622475e-01 0.000000e+00 0.000000e+00
1
Step 170000
Ar 9.234603e-01 0.000000e+00 0.000000e+00
1
Step 171000
Ar 1.028016e+00 0.000000e+00 0.000000e+00
1
Step 172000
Ar 8.360417e-01 0.000000e+00 0.000000e+00
1
Step 173000
Ar 9.007251e-01 0.000000e+00 0.000000e+00
1
Step 174000
Ar 9.392271e-01 0.000000e+00 0.000000e+00
1
Step 175000
Ar 8.816633e-01 0.000000e+00 0.000000e+00
1
Step 176000
Ar 9.336996e-01 0.000000e+00 0.000000e+00
1
Step 177000
Ar 1.090603e+00 0.000000e+00 0.000000e+00
1
Step 178000
Ar 8.886120e-01 0.000000e+00 0.000000e+00
1
Step 179000
Ar 9.584462e-01 0.000000e+00 0.000000e+00
1
Step 180000
Ar 1.057903e+00 0.000000e+00 0.000000e+00
1
Step 181000
Ar 1.026963e+00 0.000000e+00 0.000000e+00
1
Step 182000
Ar 1.068659e+00 0.000000e+00 0.000000e+00
1
Step 183000
Ar 8.959411e-01 0.000000e+00 0.000000e+00
1
Step 184000
Ar 1.019460e+00 0.000000e+00 0.000000e+00
1
Step 185000
Ar 1.043373e+00 0.000000e+00 0.000000e+00
1
Step 186000
Ar 1.119195e+00 0.000000e+00 0.000000e+00
1
Step 187000
Ar 8.645719e-01 0.000000e+00 0.000000e+00
1
Step 188000
Ar 8.996957e-01 0.000000e+00 0.000000e+00
1
Step 189000
Ar 1.061021e+00 0.000000e+00 0.000000e+00
1
Step 190000
Ar 8.400234e-01 0.000000e+00 0.000000e+00
1
Step 191000
Ar 1.060459e+00 0.000000e+00 0.000000e+00
1
Step 192000
Ar 1.058525e+00 0.000000e+00 0.000000e+00
1
Step 193000
Ar 1.065378e+00 0.000000e+00 0.000000e+00
1
Step 194000
Ar 1.034668e+00 0.000000e+00 0.000000e+00
1
Step 195000
Ar 1.014821e+00 0.000000e+00 0.000000e+00
1
Step 196000
Ar 8.879405e-01 0.000000e+00 0.000000e+00
1
Step 197000
Ar 8.191821e-01 0.000000e+00 0.000000e+00
1
Step 198000
Ar 1.080162e+00 0.000000e+00 0.000000e+00
1
Step 199000
Ar 1.018543e+00 0.000000e+00 0.000000e+00
1
Step 200000
Ar 1.050288e+00 0.000000e+00 0.000000e+00
1
Step 201000
Ar 9.768960e-01 0.000000e+00 0.000000e+00
1
Step 202000
Ar 1.012869e+00 0.000000e+00 0.000000e+00
1
Step 203000
Ar 1.079822e+00 0.000000e+00 0.000000e+00
1
Step 204000
Ar 1.154677e+00 0.000000e+00 0.000000e+00
1
Step 205000
Ar 1.113782e+00 0.000000e+00 0.000000e+00
1
Step 206000
Ar 1.119608e+00 0.000000e+00 0.000000e+00
1
Step 207000
Ar 9.376059e-01 0.000000e+00 0.000000e+00
1
Step 208000
Ar 9.355209e-01 0.000000e+00 0.000000e+00
1
Step 209000
Ar 1.127387e+00 0.000000e+00 0.000000e+00
1
Step 210000
Ar 1.154457e+00 0.000000e+00 0.000000e+00
1
Step 211000
Ar 1.166855e+00 0.000000e+00 0.000000e+00
1
Step 212000
Ar 7.626432e-01 0.000000e+00 0.000000e+00
1
Step 213000
Ar 8.626392e-01 0.000000e+00 0.000000e+00
1
Step 214000
Ar 1.106807e+00 0.000000e+00 0.000000e+00
1
Step 215000
Ar 1.000364e+00 0.000000e+00 0.000000e+00
1
Step 216000
Ar 1.049560e+00 0.000000e+00 0.000000e+00
1
Step 217000
Ar 7.468980e-01 0.000000e+00 0.000000e+00
1
Step 218000
Ar 1.080251e+00 0.000000e+00 0.000000e+00
1
Step 219000
Ar 8.460638e-01 0.000000e+00 0.000000e+00
1
Step 220000
Ar 1.029437e+00 0.000000e+00 0.000000e+00
1
Step 221000
Ar 1.080581e+00 0.000000e+00 0.000000e+00
1
Step 222000
Ar 9.071698e-01 0.000000e+00 0.000000e+00
1
Step 223000
Ar 8.892763e-01 0.000000e+00 0.000000e+00
1
Step 224000
Ar 8.720082e-01 0.000000e+00 0.000000e+00
1
Step 225000
Ar 9.104692e-01 0.000000e+00 0.000000e+00
1
Step 226000
Ar 1.030096e+00 0.000000e+00 0.000000e+00
1
Step 227000
Ar 1.154157e+00 0.000000e+00 0.000000e+00
1
Step 228000
Ar 1.065153e+00 0.000000e+00 0.000000e+00
1
Step 229000
Ar 8.721711e-01 0.000000e+00 0.000000e+00
1
Step 230000
Ar 8.688050e-01 0.000000e+00 0.000000e+00
1
Step 231000
Ar 7.719830e-01 0.000000e+00 0.000000e+00
1
Step 232000
Ar 8.621262e-01 0.000000e+00 0.000000e+00
1
Step 233000
Ar 9.461765e-01 0.000000e+00 0.000000e+00
1
Step 234000
Ar 1.166416e+00 0.000000e+00 0.000000e+00
1
Step 235000
Ar 9.911326e-01 0.000000e+00 0.000000e+00
1
Step 236000
Ar 1.096456e+00 0.000000e+00 0.000000e+00
1
Step 237000
Ar 9.939041e-01 0.000000e+00 0.000000e+00
1
Step 238000
Ar 1.004582e+00 0.000000e+00 0.000000e+00
1
Step 239000
Ar 7.952321e-01 0.000000e+00 0.000000e+00
1
Step 240000
Ar 1.012652e+00 0.000000e+00 0.000000e+00
1
Step 241000
Ar 8.883200e-01 0.000000e+00 0.000000e+00
1
Step 242000
Ar 9.455835e-01 0.000000e+00 0.000000e+00
1
Step 243000
Ar 9.679471e-01 0.000000e+00 0.000000e+00
1
Step 244000
Ar 1.024341e+00 0.000000e+00 0.000000e+00
1
Step 245000
Ar 1.149748e+00 0.000000e+00 0.000000e+00
1
Step 246000
Ar 9.406868e-01 0.000000e+00 0.000000e+00
1
Step 247000
Ar 1.081468e+00 0.000000e+00 0.000000e+00
1
Step 248000
Ar 1.115980e+00 0.000000e+00 0.000000e+00
1
Step 249000
Ar 9.539379e-01 0.000000e+00 0.000000e+00
1
Step 250000
Ar 9.274505e-01 0.000000e+00 0.000000e+00
1
Step 251000
Ar 1.154122e+00 0.000000e+00 0.000000e+00
1
Step 252000
Ar 1.170502e+00 0.000000e+00 0.000000e+00
1
Step 253000
Ar 8.635927e-01 0.000000e+00 0.000000e+00
1
Step 254000
Ar 8.666326e-01 0.000000e+00 0.000000e+00
1
Step 255000
Ar 1.045802e+00 0.000000e+00 0.000000e+00
1
Step 256000
Ar 9.260813e-01 0.000000e+00 0.000000e+00
1
Step 257000
Ar 1.066515e+00 0.000000e+00 0.000000e+00
1
Step 258000
Ar 1.050420e+00 0.000000e+00 0.000000e+00
1
Step 259000
Ar 1.036892e+00 0.000000e+00 0.000000e+00
1
Step 260000
Ar 1.119801e+00 0.000000e+00 0.000000e+00
1
Step 261000
Ar 9.914878e-01 0.000000e+00 0.000000e+00
1
Step 262000
Ar 1.070782e+00 0.000000e+00 0.000000e+00
1
Step 263000
Ar 1.039964e+00 0.000000e+00 0.000000e+00
1
Step 264000
Ar 8.665780e-01 0.000000e+00 0.000000e+00
1
Step 265000
Ar 1.098755e+00 0.000000e+00 0.000000e+00
1
Step 266000
Ar 9.090846e-01 0.000000e+00 0.000000e+00
1
Step 267000
Ar 9.986626e-01 0.000000e+00 0.000000e+00
1
Step 268000
Ar 9.969771e-01 0.000000e+00 0.000000e+00
1
Step 269000
Ar 1.005596e+00 0.000000e+00 0.000000e+00
1
Step 270000
Ar 9.079908e-01 0.000000e+00 0.000000e+00
1
Step 271000
Ar 9.258546e-01 0.000000e+00 0.000000e+00
1
Step 272000
Ar 9.860102e-01 0.000000e+00 0.000000e+00
1
Step 273000
Ar 9.745177e-01 0.000000e+00 0.000000e+00
1
Step 274000
Ar 9.892630e-01 0.000000e+00 0.000000e+00
1
Step 275000
Ar 8.994217e-01 0.000000e+00 0.000000e+00
1
Step 276000
Ar 1.166034e+00 0.000000e+00 0.000000e+00
1
Step 277000
Ar 9.251731e-01 0.000000e+00 0.000000e+00
1
Step 278000
Ar 9.594575e-01 0.000000e+00 0.000000e+00
1
Step 279000
Ar 1.010359e+00 0.000000e+00 0.000000e+00
1
Step 280000
Ar 9.164315e-01 0.000000e+00 0.000000e+00
1
Step 281000
Ar 1.092425e+00 0.000000e+00 0.000000e+00
1
Step 282000
Ar 1.076482e+00 0.000000e+00 0.000000e+00
1
Step 283000
Ar 1.142932e+00 0.000000e+00 0.000000e+00
1
Step 284000
Ar 8.089346e-01 0.000000e+00 0.000000e+00
1
Step 285000
Ar 7.841635e-01 0.000000e+00 0.000000e+00
1
Step 286000
Ar 1.212857e+00 0.000000e+00 0.000000e+00
1
Step 287000
Ar 1.068072e+00 0.000000e+00 0.000000e+00
1
Step 288000
Ar 9.267152e-01 0.000000e+00 0.000000e+00
1
Step 289000
Ar 1.009136e+00 0.000000e+00 0.000000e+00
1
Step 290000
Ar 9.046060e-01 0.000000e+00 0.000000e+00
1
Step 291000
Ar 8.474915e-01 0.000000e+00 0.000000e+00
1
Step 292000
Ar 7.296297e-01 0.000000e+00 0.000000e+00
1
Step 293000
Ar 1.008767e+00 0.000000e+00 0.000000e+00
1
Step 294000
Ar 9.573069e-01 0.000000e+00 0.000000e+00
1
Step 295000
Ar 9.209454e-01 0.000000e+00 0.000000e+00
1
Step 296000
Ar 1.044010e+00 0.000000e+00 0.000000e+00
1
Step 297000
Ar 8.957823e-01 0.000000e+00 0.000000e+00
1
Step 298000
Ar 9.702011e-01 0.000000e+00 0.000000e+00
1
Step 299000
Ar 9.026256e-01 0.000000e+00 0.000000e+00
1
Step 300000
Ar 9.214490e-01 0.000000e+00 0.000000e+00
1
Step 301000
Ar 9.833102e-01 0.000000e+00 0.000000e+00
1
Step 302000
Ar 9.640613e-01 0.000000e+00 0.000000e+00
1
Step 303000
Ar 1.027019e+00 0.000000e+00 0.000000e+00
1
Step 304000
Ar 7.506779e-01 0.000000e+00 0.000000e+00
1
Step 305000
Ar 9.992285e-01 0.000000e+00 0.000000e+00
1
Step 306000
Ar 9.863671e-01 0.000000e+00 0.000000e+00
1
Step 307000
Ar 8.823592e-01 0.000000e+00 0.000000e+00
1
Step 308000
Ar 1.099407e+00 0.000000e+00 0.000000e+00
1
Step 309000
Ar 8.968132e-01 0.000000e+00 0.000000e+00
1
Step 310000
Ar 9.415524e-01 0.000000e+00 0.000000e+00
1
Step 311000
Ar 1.124319e+00 0.000000e+00 0.000000e+00
1
Step 312000
Ar 1.066007e+00 0.000000e+00 0.000000e+00
1
Step 313000
Ar 1.031495e+00 0.000000e+00 0.000000e+00
1
Step 314000
Ar 6.731487e-01 0.000000e+00 0.000000e+00
1
Step 315000
Ar 1.034272e+00 0.000000e+00 0.000000e+00
1
Step 316000
Ar 1.031080e+00 0.000000e+00 0.000000e+00
1
Step 317000
Ar 1.018857e+00 0.000000e+00 0.000000e+00
1
Step 318000
Ar 1.075083e+00 0.000000e+00 0.000000e+00
1
Step 319000
Ar 1.013340e+00 0.000000e+00 0.000000e+00
1
Step 320000
Ar 8.812741e-01 0.000000e+00 0.000000e+00
1
Step 321000
Ar 9.021487e-01 0.000000e+00 0.000000e+00
1
Step 322000
Ar 1.138555e+00 0.000000e+00 0.000000e+00
1
Step 323000
Ar 9.083749e-01 0.000000e+00 0.000000e+00
1
Step 324000
Ar 9.684824e-01 0.000000e+00 0.000000e+00
1
Step 325000
Ar 1.112100e+00 0.000000e+00 0.000000e+00
1
Step 326000
Ar 1.005191e+00 0.000000e+00 0.000000e+00
1
Step 327000
Ar 1.025088e+00 0.000000e+00 0.000000e+00
1
Step 328000
Ar 9.786750e-01 0.000000e+00 0.000000e+00
1
Step 329000
Ar 1.058598e+00 0.000000e+00 0.000000e+00
1
Step 330000
Ar 1.044014e+00 0.000000e+00 0.000000e+00
1
Step 331000
Ar 8.632865e-01 0.000000e+00 0.000000e+00
1
Step 332000
Ar 8.694697e-01 0.000000e+00 0.000000e+00
1
Step 333000
Ar 1.022753e+00 0.000000e+00 0.000000e+00
1
Step 334000
Ar 1.066068e+00 0.000000e+00 0.000000e+00
1
Step 335000
Ar 1.079525e+00 0.000000e+00 0.000000e+00
1
Step 336000
Ar 1.075547e+00 0.000000e+00 0.000000e+00
1
Step 337000
Ar 9.209985e-01 0.000000e+00 0.000000e+00
1
Step 338000
Ar 9.441341e-01 0.000000e+00 0.000000e+00
1
Step 339000
Ar 1.032079e+00 0.000000e+00 0.000000e+00
1
Step 340000
Ar 1.108475e+00 0.000000e+00 0.000000e+00
1
Step 341000
Ar 8.122944e-01 0.000000e+00 0.000000e+00
1
Step 342000
Ar 1.182355e+00 0.000000e+00 0.000000e+00
1
Step 343000
Ar 8.036291e-01 0.000000e+00 0.000000e+00
1
Step 344000
Ar 8.962853e-01 0.000000e+00 0.000000e+00
1
Step 345000
Ar 8.345594e-01 0.000000e+00 0.000000e+00
1
Step 346000
Ar 1.315154e+00 0.000000e+00 0.000000e+00
1
Step 347000
Ar 9.986126e-01 0.000000e+00 0.000000e+00
1
Step 348000
Ar 1.088233e+00 0.000000e+00 0.000000e+00
1
Step 349000
Ar 1.151656e+00 0.000000e+00 0.000000e+00
1
Step 350000
Ar 1.082852e+00 0.000000e+00 0.000000e+00
1
Step 351000
Ar 9.947923e-01 0.000000e+00 0.000000e+00
1
Step 352000
Ar 1.122185e+00 0.000000e+00 0.000000e+00
1
Step 353000
Ar 9.989707e-01 0.000000e+00 0.000000e+00
1
Step 354000
Ar 1.001552e+00 0.000000e+00 0.000000e+00
1
Step 355000
Ar 1.038974e+00 0.000000e+00 0.000000e+00
1
Step 356000
Ar 9.053203e-01 0.000000e+00 0.000000e+00
1
Step 357000
Ar 9.764406e-01 0.000000e+00 0.000000e+00
1
Step 358000
Ar 1.004386e+00 0.000000e+00 0.000000e+00
1
Step 359000
Ar 9.256671e-01 0.000000e+00 0.000000e+00
1
Step 360000
Ar 7.955677e-01 0.000000e+00 0.000000e+00
1
Step 361000
Ar 9.424451e-01 0.000000e+00 0.000000e+00
1
Step 362000
Ar 8.957719e-01 0.000000e+00 0.000000e+00
1
Step 363000
Ar 9.813345e-01 0.000000e+00 0.000000e+00
1
Step 364000
Ar 1.062228e+00 0.000000e+00 0.000000e+00
1
Step 365000
Ar 1.050302e+00 0.000000e+00 0.000000e+00
1
Step 366000
Ar 7.655223e-01 0.000000e+00 0.000000e+00
1
Step 367000
Ar 9.013993e-01 0.000000e+00 0.000000e+00
1
Step 368000
Ar 1.073988e+00 0.000000e+00 0.000000e+00
1
Step 369000
Ar 1.136299e+00 0.000000e+00 0.000000e+00
1
Step 370000
Ar 9.683687e-01 0.000000e+00 0.000000e+00
1
Step 371000
Ar 1.043018e+00 0.000000e+00 0.000000e+00
1
Step 372000
Ar 8.458561e-01 0.000000e+00 0.000000e+00
1
Step 373000
Ar 9.977806e-01 0.000000e+00 0.000000e+00
1
Step 374000
Ar 8.225486e-01 0.000000e+00 0.000000e+00
1
Step 375000
Ar 1.028832e+00 0.000000e+00 0.000000e+00
1
Step 376000
Ar 9.437652e-01 0.000000e+00 0.000000e+00
1
Step 377000
Ar 8.910465e-01 0.000000e+00 0.000000e+00
1
Step 378000
Ar 9.741958e-01 0.000000e+00 0.000000e+00
1
Step 379000
Ar 1.015708e+00 0.000000e+00 0.000000e+00
1
Step 380000
Ar 1.003090e+00 0.000000e+00 0.000000e+00
1
Step 381000
Ar 8.611132e-01 0.000000e+00 0.000000e+00
1
Step 382000
Ar 1.103915e+00 0.000000e+00 0.000000e+00
1
Step 383000
Ar 9.758175e-01 0.000000e+00 0.000000e+00
1
Step 384000
Ar 8.611718e-01 0.000000e+00 0.000000e+00
1
Step 385000
Ar 7.513056e-01 0.000000e+00 0.000000e+00
1
Step 386000
Ar 8.423357e-01 0.000000e+00 0.000000e+00
1
Step 387000
Ar 1.009504e+00 0.000000e+00 0.000000e+00
1
Step 388000
Ar 8.909183e-01 0.000000e+00 0.000000e+00
1
Step 389000
Ar 8.289548e-01 0.000000e+00 0.000000e+00
1
Step 390000
Ar 1.014104e+00 0.000000e+00 0.000000e+00
1
Step 391000
Ar 8.194234e-01 0.000000e+00 0.000000e+00
1
Step 392000
Ar 9.844010e-01 0.000000e+00 0.000000e+00
1
Step 393000
Ar 9.936928e-01 0.000000e+00 0.000000e+00
1
Step 394000
Ar 9.666423e-01 0.000000e+00 0.000000e+00
1
Step 395000
Ar 9.835719e-01 0.000000e+00 0.000000e+00
1
Step 396000
Ar 9.995278e-01 0.000000e+00 0.000000e+00
1
Step 397000
Ar 5.036118e-01 0.000000e+00 0.000000e+00
1
Step 398000
Ar 9.516338e-01 0.000000e+00 0.000000e+00
1
Step 399000
Ar 9.796505e-01 0.000000e+00 0.000000e+00
1
Step 400000
Ar 1.014383e+00 0.000000e+00 0.000000e+00
1
Step 401000
Ar 9.697883e-01 0.000000e+00 0.000000e+00
1
Step 402000
Ar 7.922323e-01 0.000000e+00 0.000000e+00
1
Step 403000
Ar 1.056299e+00 0.000000e+00 0.000000e+00
1
Step 404000
Ar 9.652776e-01 0.000000e+00 0.000000e+00
1
Step 405000
Ar 1.065703e+00 0.000000e+00 0.000000e+00
1
Step 406000
Ar 1.021583e+00 0.000000e+00 0.000000e+00
1
Step 407000
Ar 1.147716e+00 0.000000e+00 0.000000e+00
1
Step 408000
Ar 1.086662e+00 0.000000e+00 0.000000e+00
1
Step 409000
Ar 8.588697e-01 0.000000e+00 0.000000e+00
1
Step 410000
Ar 1.043584e+00 0.000000e+00 0.000000e+00
1
Step 411000
Ar 9.620692e-01 0.000000e+00 0.000000e+00
1
Step 412000
Ar 1.104771e+00 0.000000e+00 0.000000e+00
1
Step 413000
Ar 9.752501e-01 0.000000e+00 0.000000e+00
1
Step 414000
Ar 9.483198e-01 0.000000e+00 0.000000e+00
1
Step 415000
Ar 9.913126e-01 0.000000e+00 0.000000e+00
1
Step 416000
Ar 9.575934e-01 0.000000e+00 0.000000e+00
1
Step 417000
Ar 9.312920e-01 0.000000e+00 0.000000e+00
1
Step 418000
Ar 1.075180e+00 0.000000e+00 0.000000e+00
1
Step 419000
Ar 8.819909e-01 0.000000e+00 0.000000e+00
1
Step 420000
Ar 8.148426e-01 0.000000e+00 0.000000e+00
1
Step 421000
Ar 1.207467e+00 0.000000e+00 0.000000e+00
1
Step 422000
Ar 1.052239e+00 0.000000e+00 0.000000e+00
1
Step 423000
Ar 8.827825e-01 0.000000e+00 0.000000e+00
1
Step 424000
Ar 7.550634e-01 0.000000e+00 0.000000e+00
1
Step 425000
Ar 1.061437e+00 0.000000e+00 0.000000e+00
1
Step 426000
Ar 9.910074e-01 0.000000e+00 0.000000e+00
1
Step 427000
Ar 1.025165e+00 0.000000e+00 0.000000e+00
1
Step 428000
Ar 1.247869e+00 0.000000e+00 0.000000e+00
1
Step 429000
Ar 1.156414e+00 0.000000e+00 0.000000e+00
1
Step 430000
Ar 8.915221e-01 0.000000e+00 0.000000e+00
1
Step 431000
Ar 9.886899e-01 0.000000e+00 0.000000e+00
1
Step 432000
Ar 9.059818e-01 0.000000e+00 0.000000e+00
1
Step 433000
Ar 9.651159e-01 0.000000e+00 0.000000e+00
1
Step 434000
Ar 1.052110e+00 0.000000e+00 0.000000e+00
1
Step 435000
Ar 1.144403e+00 0.000000e+00 0.000000e+00
1
Step 436000
Ar 1.304139e+00 0.000000e+00 0.000000e+00
1
Step 437000
Ar 1.002290e+00 0.000000e+00 0.000000e+00
1
Step 438000
Ar 1.034693e+00 0.000000e+00 0.000000e+00
1
Step 439000
Ar 8.691008e-01 0.000000e+00 0.000000e+00
1
Step 440000
Ar 8.778737e-01 0.000000e+00 0.000000e+00
1
Step 441000
Ar 1.000922e+00 0.000000e+00 0.000000e+00
1
Step 442000
Ar 9.726237e-01 0.000000e+00 0.000000e+00
1
Step 443000
Ar 9.422435e-01 0.000000e+00 0.000000e+00
1
Step 444000
Ar 1.065131e+00 0.000000e+00 0.000000e+00
1
Step 445000
Ar 1.039498e+00 0.000000e+00 0.000000e+00
1
Step 446000
Ar 9.780947e-01 0.000000e+00 0.000000e+00
1
Step 447000
Ar 1.134454e+00 0.000000e+00 0.000000e+00
1
Step 448000
Ar 1.057920e+00 0.000000e+00 0.000000e+00
1
Step 449000
Ar 1.006854e+00 0.000000e+00 0.000000e+00
1
Step 450000
Ar 8.892610e-01 0.000000e+00 0.000000e+00
1
Step 451000
Ar 8.023897e-01 0.000000e+00 0.000000e+00
1
Step 452000
Ar 9.596711e-01 0.000000e+00 0.000000e+00
1
Step 453000
Ar 1.040515e+00 0.000000e+00 0.000000e+00
1
Step 454000
Ar 8.183841e-01 0.000000e+00 0.000000e+00
1
Step 455000
Ar 9.827269e-01 0.000000e+00 0.000000e+00
1
Step 456000
Ar 9.298246e-01 0.000000e+00 0.000000e+00
1
Step 457000
Ar 1.101704e+00 0.000000e+00 0.000000e+00
1
Step 458000
Ar 8.574557e-01 0.000000e+00 0.000000e+00
1
Step 459000
Ar 1.223642e+00 0.000000e+00 0.000000e+00
1
Step 460000
Ar 9.994712e-01 0.000000e+00 0.000000e+00
1
Step 461000
Ar 8.687907e-01 0.000000e+00 0.000000e+00
1
Step 462000
Ar 1.003351e+00 0.000000e+00 0.000000e+00
1
Step 463000
Ar 1.014767e+00 0.000000e+00 0.000000e+00
1
Step 464000
Ar 1.032817e+00 0.000000e+00 0.000000e+00
1
Step 465000
Ar 9.655357e-01 0.000000e+00 0.000000e+00
1
Step 466000
Ar 8.002477e-01 0.000000e+00 0.000000e+00
1
Step 467000
Ar 1.128883e+00 0.000000e+00 0.000000e+00
1
Step 468000
Ar 8.460159e-01 0.000000e+00 0.000000e+00
1
Step 469000
Ar 9.752200e-01 0.000000e+00 0.000000e+00
1
Step 470000
Ar 8.493071e-01 0.000000e+00 0.000000e+00
1
Step 471000
Ar 9.936086e-01 0.000000e+00 0.000000e+00
1
Step 472000
Ar 9.535943e-01 0.000000e+00 0.000000e+00
1
Step 473000
Ar 9.333215e-01 0.000000e+00 0.000000e+00
1
Step 474000
Ar 9.836765e-01 0.000000e+00 0.000000e+00
1
Step 475000
Ar 9.288305e-01 0.000000e+00 0.000000e+00
1
Step 476000
Ar 1.298519e+00 0.000000e+00 0.000000e+00
1
Step 477000
Ar 1.212023e+00 0.000000e+00 0.000000e+00
1
Step 478000
Ar 9.866540e-01 0.000000e+00 0.000000e+00
1
Step 479000
Ar 1.166254e+00 0.000000e+00 0.000000e+00
1
Step 480000
Ar 1.039327e+00 0.000000e+00 0.000000e+00
1
Step 481000
Ar 8.943410e-01 0.000000e+00 0.000000e+00
1
Step 482000
Ar 9.787410e-01 0.000000e+00 0.000000e+00
1
Step 483000
Ar 9.907637e-01 0.000000e+00 0.000000e+00
1
Step 484000
Ar 9.138323e-01 0.000000e+00 0.000000e+00
1
Step 485000
Ar 9.948766e-01 0.000000e+00 0.000000e+00
1
Step 486000
Ar 1.227591e+00 0.000000e+00 0.000000e+00
1
Step 487000
Ar 9.503286e-01 0.000000e+00 0.000000e+00
1
Step 488000
Ar 7.486616e-01 0.000000e+00 0.000000e+00
1
Step 489000
Ar 1.094229e+00 0.000000e+00 0.000000e+00
1
Step 490000
Ar 1.133755e+00 0.000000e+00 0.000000e+00
1
Step 491000
Ar 1.123586e+00 0.000000e+00 0.000000e+00
1
Step 492000
Ar 9.724631e-01 0.000000e+00 0.000000e+00
1
Step 493000
Ar 9.192485e-01 0.000000e+00 0.000000e+00
1
Step 494000
Ar 1.143096e+00 0.000000e+00 0.000000e+00
1
Step 495000
Ar 9.482638e-01 0.000000e+00 0.000000e+00
1
Step 496000
Ar 1.008574e+00 0.000000e+00 0.000000e+00
1
Step 497000
Ar 8.742843e-01 0.000000e+00 0.000000e+00
1
Step 498000
Ar 9.590673e-01 0.000000e+00 0.000000e+00
1
Step 499000
Ar 1.074541e+00 0.000000e+00 0.000000e+00
1
Step 500000
Ar 8.932574e-01 0.000000e+00 0.000000e+00
1
Step 501000
Ar 9.909497e-01 0.000000e+00 0.000000e+00
1
Step 502000
Ar 9.846285e-01 0.000000e+00 0.000000e+00
1
Step 503000
Ar 1.090028e+00 0.000000e+00 0.000000e+00
1
Step 504000
Ar 1.201227e+00 0.000000e+00 0.000000e+00
1
Step 505000
Ar 8.700856e-01 0.000000e+00 0.000000e+00
1
Step 506000
Ar 1.029373e+00 0.000000e+00 0.000000e+00
1
Step 507000
Ar 9.653264e-01 0.000000e+00 0.000000e+00
1
Step 508000
Ar 9.514544e-01 0.000000e+00 0.000000e+00
1
Step 509000
Ar 6.437642e-01 0.000000e+00 0.000000e+00
1
Step 510000
Ar 1.039449e+00 0.000000e+00 0.000000e+00
1
Step 511000
Ar 9.053223e-01 0.000000e+00 0.000000e+00
1
Step 512000
Ar 1.106563e+00 0.000000e+00 0.000000e+00
1
Step 513000
Ar 1.132349e+00 0.000000e+00 0.000000e+00
1
Step 514000
Ar 9.901715e-01 0.000000e+00 0.000000e+00
1
Step 515000
Ar 9.871687e-01 0.000000e+00 0.000000e+00
1
Step 516000
Ar 8.809412e-01 0.000000e+00 0.000000e+00
1
Step 517000
Ar 1.043373e+00 0.000000e+00 0.000000e+00
1
Step 518000
Ar 1.034966e+00 0.000000e+00 0.000000e+00
1
Step 519000
Ar 1.112542e+00 0.000000e+00 0.000000e+00
1
Step 520000
Ar 1.063011e+00 0.000000e+00 0.000000e+00
1
Step 521000
Ar 9.770356e-01 0.000000e+00 0.000000e+00
1
Step 522000
Ar 1.121705e+00 0.000000e+00 0.000000e+00
1
Step 523000
Ar 9.509707e-01 0.000000e+00 0.000000e+00
1
Step 524000
Ar 1.039736e+00 0.000000e+00 0.000000e+00
1
Step 525000
Ar 1.072312e+00 0.000000e+00 0.000000e+00
1
Step 526000
Ar 7.152750e-01 0.000000e+00 0.000000e+00
1
Step 527000
Ar 1.102715e+00 0.000000e+00 0.000000e+00
1
Step 528000
Ar 9.006351e-01 0.000000e+00 0.000000e+00
1
Step 529000
Ar 1.067680e+00 0.000000e+00 0.000000e+00
1
Step 530000
Ar 7.461077e-01 0.000000e+00 0.000000e+00
1
Step 531000
Ar 8.900519e-01 0.000000e+00 0.000000e+00
1
Step 532000
Ar 1.162257e+00 0.000000e+00 0.000000e+00
1
Step 533000
Ar 9.808516e-01 0.000000e+00 0.000000e+00
1
Step 534000
Ar 1.068268e+00 0.000000e+00 0.000000e+00
1
Step 535000
Ar 1.091114e+00 0.000000e+00 0.000000e+00
1
Step 536000
Ar 8.891264e-01 0.000000e+00 0.000000e+00
1
Step 537000
Ar 1.104345e+00 0.000000e+00 0.000000e+00
1
Step 538000
Ar 1.027552e+00 0.000000e+00 0.000000e+00
1
Step 539000
Ar 9.053941e-01 0.000000e+00 0.000000e+00
1
Step 540000
Ar 1.082062e+00 0.000000e+00 0.000000e+00
1
Step 541000
Ar 1.056577e+00 0.000000e+00 0.000000e+00
1
Step 542000
Ar 1.038988e+00 0.000000e+00 0.000000e+00
1
Step 543000
Ar 1.137433e+00 0.000000e+00 0.000000e+00
1
Step 544000
Ar 1.005841e+00 0.000000e+00 0.000000e+00
1
Step 545000
Ar 9.720400e-01 0.000000e+00 0.000000e+00
1
Step 546000
Ar 1.138175e+00 0.000000e+00 0.000000e+00
1
Step 547000
Ar 9.402193e-01 0.000000e+00 0.000000e+00
1
Step 548000
Ar 1.116773e+00 0.000000e+00 0.000000e+00
1
Step 549000
Ar 8.103041e-01 0.000000e+00 0.000000e+00
1
Step 550000
Ar 7.977540e-01 0.000000e+00 0.000000e+00
1
Step 551000
Ar 1.048359e+00 0.000000e+00 0.000000e+00
1
Step 552000
Ar 9.896958e-01 0.000000e+00 0.000000e+00
1
Step 553000
Ar 1.158325e+00 0.000000e+00 0.000000e+00
1
Step 554000
Ar 7.084811e-01 0.000000e+00 0.000000e+00
1
Step 555000
Ar 7.966353e-01 0.000000e+00 0.000000e+00
1
Step 556000
Ar 1.002349e+00 0.000000e+00 0.000000e+00
1
Step 557000
Ar 1.029206e+00 0.000000e+00 0.000000e+00
1
Step 558000
Ar 1.293829e+00 0.000000e+00 0.000000e+00
1
Step 559000
Ar 1.049602e+00 0.000000e+00 0.000000e+00
1
Step 560000
Ar 9.941190e-01 0.000000e+00 0.000000e+00
1
Step 561000
Ar 1.096010e+00 0.000000e+00 0.000000e+00
1
Step 562000
Ar 1.039227e+00 0.000000e+00 0.000000e+00
1
Step 563000
Ar 1.139016e+00 0.000000e+00 0.000000e+00
1
Step 564000
Ar 1.076395e+00 0.000000e+00 0.000000e+00
1
Step 565000
Ar 1.005352e+00 0.000000e+00 0.000000e+00
1
Step 566000
Ar 7.560462e-01 0.000000e+00 0.000000e+00
1
Step 567000
Ar 9.852671e-01 0.000000e+00 0.000000e+00
1
Step 568000
Ar 9.988389e-01 0.000000e+00 0.000000e+00
1
Step 569000
Ar 1.080432e+00 0.000000e+00 0.000000e+00
1
Step 570000
Ar 1.002433e+00 0.000000e+00 0.000000e+00
1
Step 571000
Ar 1.100735e+00 0.000000e+00 0.000000e+00
1
Step 572000
Ar 1.103946e+00 0.000000e+00 0.000000e+00
1
Step 573000
Ar 1.081734e+00 0.000000e+00 0.000000e+00
1
Step 574000
Ar 8.171403e-01 0.000000e+00 0.000000e+00
1
Step 575000
Ar 1.098005e+00 0.000000e+00 0.000000e+00
1
Step 576000
Ar 1.032126e+00 0.000000e+00 0.000000e+00
1
Step 577000
Ar 8.866348e-01 0.000000e+00 0.000000e+00
1
Step 578000
Ar 1.077457e+00 0.000000e+00 0.000000e+00
1
Step 579000
Ar 9.210457e-01 0.000000e+00 0.000000e+00
1
Step 580000
Ar 7.325991e-01 0.000000e+00 0.000000e+00
1
Step 581000
Ar 1.017452e+00 0.000000e+00 0.000000e+00
1
Step 582000
Ar 8.461632e-01 0.000000e+00 0.000000e+00
1
Step 583000
Ar 1.160767e+00 0.000000e+00 0.000000e+00
1
Step 584000
Ar 8.183366e-01 0.000000e+00 0.000000e+00
1
Step 585000
Ar 9.552702e-01 0.000000e+00 0.000000e+00
1
Step 586000
Ar 9.498960e-01 0.000000e+00 0.000000e+00
1
Step 587000
Ar 8.773412e-01 0.000000e+00 0.000000e+00
1
Step 588000
Ar 8.352019e-01 0.000000e+00 0.000000e+00
1
Step 589000
Ar 8.993429e-01 0.000000e+00 0.000000e+00
1
Step 590000
Ar 9.385911e-01 0.000000e+00 0.000000e+00
1
Step 591000
Ar 1.036433e+00 0.000000e+00 0.000000e+00
1
Step 592000
Ar 1.131991e+00 0.000000e+00 0.000000e+00
1
Step 593000
Ar 8.633949e-01 0.000000e+00 0.000000e+00
1
Step 594000
Ar 9.314373e-01 0.000000e+00 0.000000e+00
1
Step 595000
Ar 1.007243e+00 0.000000e+00 0.000000e+00
1
Step 596000
Ar 1.010106e+00 0.000000e+00 0.000000e+00
1
Step 597000
Ar 1.140041e+00 0.000000e+00 0.000000e+00
1
Step 598000
Ar 1.045091e+00 0.000000e+00 0.000000e+00
1
Step 599000
Ar 8.639609e-01 0.000000e+00 0.000000e+00
1
Step 600000
Ar 9.909026e-01 0.000000e+00 0.000000e+00
1
Step 601000
Ar 9.823912e-01 0.000000e+00 0.000000e+00
1
Step 602000
Ar 7.660946e-01 0.000000e+00 0.000000e+00
1
Step 603000
Ar 1.097233e+00 0.000000e+00 0.000000e+00
1
Step 604000
Ar 8.107577e-01 0.000000e+00 0.000000e+00
1
Step 605000
Ar 1.032729e+00 0.000000e+00 0.000000e+00
1
Step 606000
Ar 8.782129e-01 0.000000e+00 0.000000e+00
1
Step 607000
Ar 9.456783e-01 0.000000e+00 0.000000e+00
1
Step 608000
Ar 8.819771e-01 0.000000e+00 0.000000e+00
1
Step 609000
Ar 6.746939e-01 0.000000e+00 0.000000e+00
1
Step 610000
Ar 1.105494e+00 0.000000e+00 0.000000e+00
1
Step 611000
Ar 8.579596e-01 0.000000e+00 0.000000e+00
1
Step 612000
Ar 1.043892e+00 0.000000e+00 0.000000e+00
1
Step 613000
Ar 9.501395e-01 0.000000e+00 0.000000e+00
1
Step 614000
Ar 1.069455e+00 0.000000e+00 0.000000e+00
1
Step 615000
Ar 1.065198e+00 0.000000e+00 0.000000e+00
1
Step 616000
Ar 8.238754e-01 0.000000e+00 0.000000e+00
1
Step 617000
Ar 9.548990e-01 0.000000e+00 0.000000e+00
1
Step 618000
Ar 8.538540e-01 0.000000e+00 0.000000e+00
1
Step 619000
Ar 9.669506e-01 0.000000e+00 0.000000e+00
1
Step 620000
Ar 8.717953e-01 0.000000e+00 0.000000e+00
1
Step 621000
Ar 8.915940e-01 0.000000e+00 0.000000e+00
1
Step 622000
Ar 1.059002e+00 0.000000e+00 0.000000e+00
1
Step 623000
Ar 1.032465e+00 0.000000e+00 0.000000e+00
1
Step 624000
Ar 1.005466e+00 0.000000e+00 0.000000e+00
1
Step 625000
Ar 1.087072e+00 0.000000e+00 0.000000e+00
1
Step 626000
Ar 1.012246e+00 0.000000e+00 0.000000e+00
1
Step 627000
Ar 9.268920e-01 0.000000e+00 0.000000e+00
1
Step 628000
Ar 8.348560e-01 0.000000e+00 0.000000e+00
1
Step 629000
Ar 8.816605e-01 0.000000e+00 0.000000e+00
1
Step 630000
Ar 1.007125e+00 0.000000e+00 0.000000e+00
1
Step 631000
Ar 1.150335e+00 0.000000e+00 0.000000e+00
1
Step 632000
Ar 1.047803e+00 0.000000e+00 0.000000e+00
1
Step 633000
Ar 8.502261e-01 0.000000e+00 0.000000e+00
1
Step 634000
Ar 9.863300e-01 0.000000e+00 0.000000e+00
1
Step 635000
Ar 8.965215e-01 0.000000e+00 0.000000e+00
1
Step 636000
Ar 8.879669e-01 0.000000e+00 0.000000e+00
1
Step 637000
Ar 1.126434e+00 0.000000e+00 0.000000e+00
1
Step 638000
Ar 9.336021e-01 0.000000e+00 0.000000e+00
1
Step 639000
Ar 1.073622e+00 0.000000e+00 0.000000e+00
1
Step 640000
Ar 9.006747e-01 0.000000e+00 0.000000e+00
1
Step 641000
Ar 9.112658e-01 0.000000e+00 0.000000e+00
1
Step 642000
Ar 1.117025e+00 0.000000e+00 0.000000e+00
1
Step 643000
Ar 1.010580e+00 0.000000e+00 0.000000e+00
1
Step 644000
Ar 9.029340e-01 0.000000e+00 0.000000e+00
1
Step 645000
Ar 1.008223e+00 0.000000e+00 0.000000e+00
1
Step 646000
Ar 1.031895e+00 0.000000e+00 0.000000e+00
1
Step 647000
Ar 1.050068e+00 0.000000e+00 0.000000e+00
1
Step 648000
Ar 1.042167e+00 0.000000e+00 0.000000e+00
1
Step 649000
Ar 9.913612e-01 0.000000e+00 0.000000e+00
1
Step 650000
Ar 8.996304e-01 0.000000e+00 0.000000e+00
1
Step 651000
Ar 7.695623e-01 0.000000e+00 0.000000e+00
1
Step 652000
Ar 1.087861e+00 0.000000e+00 0.000000e+00
1
Step 653000
Ar 9.362554e-01 0.000000e+00 0.000000e+00
1
Step 654000
Ar 7.830999e-01 0.000000e+00 0.000000e+00
1
Step 655000
Ar 5.754398e-01 0.000000e+00 0.000000e+00
1
Step 656000
Ar 8.798649e-01 0.000000e+00 0.000000e+00
1
Step 657000
Ar 9.226057e-01 0.000000e+00 0.000000e+00
1
Step 658000
Ar 1.078649e+00 0.000000e+00 0.000000e+00
1
Step 659000
Ar 8.795393e-01 0.000000e+00 0.000000e+00
1
Step 660000
Ar 9.868404e-01 0.000000e+00 0.000000e+00
1
Step 661000
Ar 9.291814e-01 0.000000e+00 0.000000e+00
1
Step 662000
Ar 8.822294e-01 0.000000e+00 0.000000e+00
1
Step 663000
Ar 1.075517e+00 0.000000e+00 0.000000e+00
1
Step 664000
Ar 1.100805e+00 0.000000e+00 0.000000e+00
1
Step 665000
Ar 9.803999e-01 0.000000e+00 0.000000e+00
1
Step 666000
Ar 8.264997e-01 0.000000e+00 0.000000e+00
1
Step 667000
Ar 8.414822e-01 0.000000e+00 0.000000e+00
1
Step 668000
Ar 9.967892e-01 0.000000e+00 0.000000e+00
1
Step 669000
Ar 6.991971e-01 0.000000e+00 0.000000e+00
1
Step 670000
Ar 9.922353e-01 0.000000e+00 0.000000e+00
1
Step 671000
Ar 8.256225e-01 0.000000e+00 0.000000e+00
1
Step 672000
Ar 1.092280e+00 0.000000e+00 0.000000e+00
1
Step 673000
Ar 8.515884e-01 0.000000e+00 0.000000e+00
1
Step 674000
Ar 9.380155e-01 0.000000e+00 0.000000e+00
1
Step 675000
Ar 5.505568e-01 0.000000e+00 0.000000e+00
1
Step 676000
Ar 1.004156e+00 0.000000e+00 0.000000e+00
1
Step 677000
Ar 1.066138e+00 0.000000e+00 0.000000e+00
1
Step 678000
Ar 1.001702e+00 0.000000e+00 0.000000e+00
1
Step 679000
Ar 9.754093e-01 0.000000e+00 0.000000e+00
1
Step 680000
Ar 9.997936e-01 0.000000e+00 0.000000e+00
1
Step 681000
Ar 1.080556e+00 0.000000e+00 0.000000e+00
1
Step 682000
Ar 9.640788e-01 0.000000e+00 0.000000e+00
1
Step 683000
Ar 1.163304e+00 0.000000e+00 0.000000e+00
1
Step 684000
Ar 1.086379e+00 0.000000e+00 0.000000e+00
1
Step 685000
Ar 7.946782e-01 0.000000e+00 0.000000e+00
1
Step 686000
Ar 8.779996e-01 0.000000e+00 0.000000e+00
1
Step 687000
Ar 1.078282e+00 0.000000e+00 0.000000e+00
1
Step 688000
Ar 1.033927e+00 0.000000e+00 0.000000e+00
1
Step 689000
Ar 1.037692e+00 0.000000e+00 0.000000e+00
1
Step 690000
Ar 1.065015e+00 0.000000e+00 0.000000e+00
1
Step 691000
Ar 1.021827e+00 0.000000e+00 0.000000e+00
1
Step 692000
Ar 1.006047e+00 0.000000e+00 0.000000e+00
1
Step 693000
Ar 8.912607e-01 0.000000e+00 0.000000e+00
1
Step 694000
Ar 8.828300e-01 0.000000e+00 0.000000e+00
1
Step 695000
Ar 9.765554e-01 0.000000e+00 0.000000e+00
1
Step 696000
Ar 1.056191e+00 0.000000e+00 0.000000e+00
1
Step 697000
Ar 1.079302e+00 0.000000e+00 0.000000e+00
1
Step 698000
Ar 1.013669e+00 0.000000e+00 0.000000e+00
1
Step 699000
Ar 8.538604e-01 0.000000e+00 0.000000e+00
1
Step 700000
Ar 1.026329e+00 0.000000e+00 0.000000e+00
1
Step 701000
Ar 1.008696e+00 0.000000e+00 0.000000e+00
1
Step 702000
Ar 7.848174e-01 0.000000e+00 0.000000e+00
1
Step 703000
Ar 9.664977e-01 0.000000e+00 0.000000e+00
1
Step 704000
Ar 9.625885e-01 0.000000e+00 0.000000e+00
1
Step 705000
Ar 1.145556e+00 0.000000e+00 0.000000e+00
1
Step 706000
Ar 1.015976e+00 0.000000e+00 0.000000e+00
1
Step 707000
Ar 9.701554e-01 0.000000e+00 0.000000e+00
1
Step 708000
Ar 1.056697e+00 0.000000e+00 0.000000e+00
1
Step 709000
Ar 9.412171e-01 0.000000e+00 0.000000e+00
1
Step 710000
Ar 1.086860e+00 0.000000e+00 0.000000e+00
1
Step 711000
Ar 7.121218e-01 0.000000e+00 0.000000e+00
1
Step 712000
Ar 9.698977e-01 0.000000e+00 0.000000e+00
1
Step 713000
Ar 1.006297e+00 0.000000e+00 0.000000e+00
1
Step 714000
Ar 1.033615e+00 0.000000e+00 0.000000e+00
1
Step 715000
Ar 9.259851e-01 0.000000e+00 0.000000e+00
1
Step 716000
Ar 1.093719e+00 0.000000e+00 0.000000e+00
1
Step 717000
Ar 1.032258e+00 0.000000e+00 0.000000e+00
1
Step 718000
Ar 1.071531e+00 0.000000e+00 0.000000e+00
1
Step 719000
Ar 8.530725e-01 0.000000e+00 0.000000e+00
1
Step 720000
Ar 8.823112e-01 0.000000e+00 0.000000e+00
1
Step 721000
Ar 9.325898e-01 0.000000e+00 0.000000e+00
1
Step 722000
Ar 1.002994e+00 0.000000e+00 0.000000e+00
1
Step 723000
Ar 1.000658e+00 0.000000e+00 0.000000e+00
1
Step 724000
Ar 1.045839e+00 0.000000e+00 0.000000e+00
1
Step 725000
Ar 9.956172e-01 0.000000e+00 0.000000e+00
1
Step 726000
Ar 1.100993e+00 0.000000e+00 0.000000e+00
1
Step 727000
Ar 1.127103e+00 0.000000e+00 0.000000e+00
1
Step 728000
Ar 9.710782e-01 0.000000e+00 0.000000e+00
1
Step 729000
Ar 9.797517e-01 0.000000e+00 0.000000e+00
1
Step 730000
Ar 9.139885e-01 0.000000e+00 0.000000e+00
1
Step 731000
Ar 1.084081e+00 0.000000e+00 0.000000e+00
1
Step 732000
Ar 9.463886e-01 0.000000e+00 0.000000e+00
1
Step 733000
Ar 9.866413e-01 0.000000e+00 0.000000e+00
1
Step 734000
Ar 1.083937e+00 0.000000e+00 0.000000e+00
1
Step 735000
Ar 1.018648e+00 0.000000e+00 0.000000e+00
1
Step 736000
Ar 1.140195e+00 0.000000e+00 0.000000e+00
1
Step 737000
Ar 8.946136e-01 0.000000e+00 0.000000e+00
1
Step 738000
Ar 9.094199e-01 0.000000e+00 0.000000e+00
1
Step 739000
Ar 1.149406e+00 0.000000e+00 0.000000e+00
1
Step 740000
Ar 1.071253e+00 0.000000e+00 0.000000e+00
1
Step 741000
Ar 9.673312e-01 0.000000e+00 0.000000e+00
1
Step 742000
Ar 9.238308e-01 0.000000e+00 0.000000e+00
1
Step 743000
Ar 1.047758e+00 0.000000e+00 0.000000e+00
1
Step 744000
Ar 1.107832e+00 0.000000e+00 0.000000e+00
1
Step 745000
Ar 1.033844e+00 0.000000e+00 0.000000e+00
1
Step 746000
Ar 1.200464e+00 0.000000e+00 0.000000e+00
1
Step 747000
Ar 1.102274e+00 0.000000e+00 0.000000e+00
1
Step 748000
Ar 9.904522e-01 0.000000e+00 0.000000e+00
1
Step 749000
Ar 9.097151e-01 0.000000e+00 0.000000e+00
1
Step 750000
Ar 1.127071e+00 0.000000e+00 0.000000e+00
1
Step 751000
Ar 9.755347e-01 0.000000e+00 0.000000e+00
1
Step 752000
Ar 9.693555e-01 0.000000e+00 0.000000e+00
1
Step 753000
Ar 1.109706e+00 0.000000e+00 0.000000e+00
1
Step 754000
Ar 1.037106e+00 0.000000e+00 0.000000e+00
1
Step 755000
Ar 1.063529e+00 0.000000e+00 0.000000e+00
1
Step 756000
Ar 9.927982e-01 0.000000e+00 0.000000e+00
1
Step 757000
Ar 1.017219e+00 0.000000e+00 0.000000e+00
1
Step 758000
Ar 9.024715e-01 0.000000e+00 0.000000e+00
1
Step 759000
Ar 1.145599e+00 0.000000e+00 0.000000e+00
1
Step 760000
Ar 1.072828e+00 0.000000e+00 0.000000e+00
1
Step 761000
Ar 1.129298e+00 0.000000e+00 0.000000e+00
1
Step 762000
Ar 8.958898e-01 0.000000e+00 0.000000e+00
1
Step 763000
Ar 9.035918e-01 0.000000e+00 0.000000e+00
1
Step 764000
Ar 9.711481e-01 0.000000e+00 0.000000e+00
1
Step 765000
Ar 9.721410e-01 0.000000e+00 0.000000e+00
1
Step 766000
Ar 9.362734e-01 0.000000e+00 0.000000e+00
1
Step 767000
Ar 1.142887e+00 0.000000e+00 0.000000e+00
1
Step 768000
Ar 9.784885e-01 0.000000e+00 0.000000e+00
1
Step 769000
Ar 9.940232e-01 0.000000e+00 0.000000e+00
1
Step 770000
Ar 1.029710e+00 0.000000e+00 0.000000e+00
1
Step 771000
Ar 9.037581e-01 0.000000e+00 0.000000e+00
1
Step 772000
Ar 9.645734e-01 0.000000e+00 0.000000e+00
1
Step 773000
Ar 1.088720e+00 0.000000e+00 0.000000e+00
1
Step 774000
Ar 9.248587e-01 0.000000e+00 0.000000e+00
1
Step 775000
Ar 1.164427e+00 0.000000e+00 0.000000e+00
1
Step 776000
Ar 1.198288e+00 0.000000e+00 0.000000e+00
1
Step 777000
Ar 1.032200e+00 0.000000e+00 0.000000e+00
1
Step 778000
Ar 9.490724e-01 0.000000e+00 0.000000e+00
1
Step 779000
Ar 1.136636e+00 0.000000e+00 0.000000e+00
1
Step 780000
Ar 1.226104e+00 0.000000e+00 0.000000e+00
1
Step 781000
Ar 9.550891e-01 0.000000e+00 0.000000e+00
1
Step 782000
Ar 9.470242e-01 0.000000e+00 0.000000e+00
1
Step 783000
Ar 9.291009e-01 0.000000e+00 0.000000e+00
1
Step 784000
Ar 9.670183e-01 0.000000e+00 0.000000e+00
1
Step 785000
Ar 9.710058e-01 0.000000e+00 0.000000e+00
1
Step 786000
Ar 1.031963e+00 0.000000e+00 0.000000e+00
1
Step 787000
Ar 9.056153e-01 0.000000e+00 0.000000e+00
1
Step 788000
Ar 1.156230e+00 0.000000e+00 0.000000e+00
1
Step 789000
Ar 1.016594e+00 0.000000e+00 0.000000e+00
1
Step 790000
Ar 9.471689e-01 0.000000e+00 0.000000e+00
1
Step 791000
Ar 1.015401e+00 0.000000e+00 0.000000e+00
1
Step 792000
Ar 9.090399e-01 0.000000e+00 0.000000e+00
1
Step 793000
Ar 9.387541e-01 0.000000e+00 0.000000e+00
1
Step 794000
Ar 1.027679e+00 0.000000e+00 0.000000e+00
1
Step 795000
Ar 9.546433e-01 0.000000e+00 0.000000e+00
1
Step 796000
Ar 9.873821e-01 0.000000e+00 0.000000e+00
1
Step 797000
Ar 1.070557e+00 0.000000e+00 0.000000e+00
1
Step 798000
Ar 9.030106e-01 0.000000e+00 0.000000e+00
1
Step 799000
Ar 1.095592e+00 0.000000e+00 0.000000e+00
1
Step 800000
Ar 9.334735e-01 0.000000e+00 0.000000e+00
1
Step 801000
Ar 1.015634e+00 0.000000e+00 0.000000e+00
1
Step 802000
Ar 9.063757e-01 0.000000e+00 0.000000e+00
1
Step 803000
Ar 1.240846e+00 0.000000e+00 0.000000e+00
1
Step 804000
Ar 1.020752e+00 0.000000e+00 0.000000e+00
1
Step 805000
Ar 1.079730e+00 0.000000e+00 0.000000e+00
1
Step 806000
Ar 1.000602e+00 0.000000e+00 0.000000e+00
1
Step 807000
Ar 9.244269e-01 0.000000e+00 0.000000e+00
1
Step 808000
Ar 1.015188e+00 0.000000e+00 0.000000e+00
1
Step 809000
Ar 1.151399e+00 0.000000e+00 0.000000e+00
1
Step 810000
Ar 9.708434e-01 0.000000e+00 0.000000e+00
1
Step 811000
Ar 1.024983e+00 0.000000e+00 0.000000e+00
1
Step 812000
Ar 1.036486e+00 0.000000e+00 0.000000e+00
1
Step 813000
Ar 9.777600e-01 0.000000e+00 0.000000e+00
1
Step 814000
Ar 1.023410e+00 0.000000e+00 0.000000e+00
1
Step 815000
Ar 1.042309e+00 0.000000e+00 0.000000e+00
1
Step 816000
Ar 1.010279e+00 0.000000e+00 0.000000e+00
1
Step 817000
Ar 9.923599e-01 0.000000e+00 0.000000e+00
1
Step 818000
Ar 1.062451e+00 0.000000e+00 0.000000e+00
1
Step 819000
Ar 9.803721e-01 0.000000e+00 0.000000e+00
1
Step 820000
Ar 9.032065e-01 0.000000e+00 0.000000e+00
1
Step 821000
Ar 9.002048e-01 0.000000e+00 0.000000e+00
1
Step 822000
Ar 9.347791e-01 0.000000e+00 0.000000e+00
1
Step 823000
Ar 1.074335e+00 0.000000e+00 0.000000e+00
1
Step 824000
Ar 1.256841e+00 0.000000e+00 0.000000e+00
1
Step 825000
Ar 1.115690e+00 0.000000e+00 0.000000e+00
1
Step 826000
Ar 9.281460e-01 0.000000e+00 0.000000e+00
1
Step 827000
Ar 1.083759e+00 0.000000e+00 0.000000e+00
1
Step 828000
Ar 1.029568e+00 0.000000e+00 0.000000e+00
1
Step 829000
Ar 1.009662e+00 0.000000e+00 0.000000e+00
1
Step 830000
Ar 9.338406e-01 0.000000e+00 0.000000e+00
1
Step 831000
Ar 9.605828e-01 0.000000e+00 0.000000e+00
1
Step 832000
Ar 1.225911e+00 0.000000e+00 0.000000e+00
1
Step 833000
Ar 1.037121e+00 0.000000e+00 0.000000e+00
1
Step 834000
Ar 1.101570e+00 0.000000e+00 0.000000e+00
1
Step 835000
Ar 9.715324e-01 0.000000e+00 0.000000e+00
1
Step 836000
Ar 9.517326e-01 0.000000e+00 0.000000e+00
1
Step 837000
Ar 9.506173e-01 0.000000e+00 0.000000e+00
1
Step 838000
Ar 1.030284e+00 0.000000e+00 0.000000e+00
1
Step 839000
Ar 9.744128e-01 0.000000e+00 0.000000e+00
1
Step 840000
Ar 1.142589e+00 0.000000e+00 0.000000e+00
1
Step 841000
Ar 1.236757e+00 0.000000e+00 0.000000e+00
1
Step 842000
Ar 1.072889e+00 0.000000e+00 0.000000e+00
1
Step 843000
Ar 1.020619e+00 0.000000e+00 0.000000e+00
1
Step 844000
Ar 1.023022e+00 0.000000e+00 0.000000e+00
1
Step 845000
Ar 9.407878e-01 0.000000e+00 0.000000e+00
1
Step 846000
Ar 1.109789e+00 0.000000e+00 0.000000e+00
1
Step 847000
Ar 1.042785e+00 0.000000e+00 0.000000e+00
1
Step 848000
Ar 1.158701e+00 0.000000e+00 0.000000e+00
1
Step 849000
Ar 1.174300e+00 0.000000e+00 0.000000e+00
1
Step 850000
Ar 9.935333e-01 0.000000e+00 0.000000e+00
1
Step 851000
Ar 1.079795e+00 0.000000e+00 0.000000e+00
1
Step 852000
Ar 1.024310e+00 0.000000e+00 0.000000e+00
1
Step 853000
Ar 1.278405e+00 0.000000e+00 0.000000e+00
1
Step 854000
Ar 1.046461e+00 0.000000e+00 0.000000e+00
1
Step 855000
Ar 9.302997e-01 0.000000e+00 0.000000e+00
1
Step 856000
Ar 1.086896e+00 0.000000e+00 0.000000e+00
1
Step 857000
Ar 9.892790e-01 0.000000e+00 0.000000e+00
1
Step 858000
Ar 1.056877e+00 0.000000e+00 0.000000e+00
1
Step 859000
Ar 9.644687e-01 0.000000e+00 0.000000e+00
1
Step 860000
Ar 1.070941e+00 0.000000e+00 0.000000e+00
1
Step 861000
Ar 1.155006e+00 0.000000e+00 0.000000e+00
1
Step 862000
Ar 9.360530e-01 0.000000e+00 0.000000e+00
1
Step 863000
Ar 9.063203e-01 0.000000e+00 0.000000e+00
1
Step 864000
Ar 1.103218e+00 0.000000e+00 0.000000e+00
1
Step 865000
Ar 1.095440e+00 0.000000e+00 0.000000e+00
1
Step 866000
Ar 9.447232e-01 0.000000e+00 0.000000e+00
1
Step 867000
Ar 1.106872e+00 0.000000e+00 0.000000e+00
1
Step 868000
Ar 9.373999e-01 0.000000e+00 0.000000e+00
1
Step 869000
Ar 9.047945e-01 0.000000e+00 0.000000e+00
1
Step 870000
Ar 9.142940e-01 0.000000e+00 0.000000e+00
1
Step 871000
Ar 1.077088e+00 0.000000e+00 0.000000e+00
1
Step 872000
Ar 1.066565e+00 0.000000e+00 0.000000e+00
1
Step 873000
Ar 9.576701e-01 0.000000e+00 0.000000e+00
1
Step 874000
Ar 1.096340e+00 0.000000e+00 0.000000e+00
1
Step 875000
Ar 1.022854e+00 0.000000e+00 0.000000e+00
1
Step 876000
Ar 9.697533e-01 0.000000e+00 0.000000e+00
1
Step 877000
Ar 9.069639e-01 0.000000e+00 0.000000e+00
1
Step 878000
Ar 1.043396e+00 0.000000e+00 0.000000e+00
1
Step 879000
Ar 9.871296e-01 0.000000e+00 0.000000e+00
1
Step 880000
Ar 9.468612e-01 0.000000e+00 0.000000e+00
1
Step 881000
Ar 8.966207e-01 0.000000e+00 0.000000e+00
1
Step 882000
Ar 9.879754e-01 0.000000e+00 0.000000e+00
1
Step 883000
Ar 1.090094e+00 0.000000e+00 0.000000e+00
1
Step 884000
Ar 9.484665e-01 0.000000e+00 0.000000e+00
1
Step 885000
Ar 1.125333e+00 0.000000e+00 0.000000e+00
1
Step 886000
Ar 9.211586e-01 0.000000e+00 0.000000e+00
1
Step 887000
Ar 9.090881e-01 0.000000e+00 0.000000e+00
1
Step 888000
Ar 1.165434e+00 0.000000e+00 0.000000e+00
1
Step 889000
Ar 1.116556e+00 0.000000e+00 0.000000e+00
1
Step 890000
Ar 1.067245e+00 0.000000e+00 0.000000e+00
1
Step 891000
Ar 9.744877e-01 0.000000e+00 0.000000e+00
1
Step 892000
Ar 9.015157e-01 0.000000e+00 0.000000e+00
1
Step 893000
Ar 1.116290e+00 0.000000e+00 0.000000e+00
1
Step 894000
Ar 1.167136e+00 0.000000e+00 0.000000e+00
1
Step 895000
Ar 9.175861e-01 0.000000e+00 0.000000e+00
1
Step 896000
Ar 1.172534e+00 0.000000e+00 0.000000e+00
1
Step 897000
Ar 9.376751e-01 0.000000e+00 0.000000e+00
1
Step 898000
Ar 1.096234e+00 0.000000e+00 0.000000e+00
1
Step 899000
Ar 9.371910e-01 0.000000e+00 0.000000e+00
1
Step 900000
Ar 9.403834e-01 0.000000e+00 0.000000e+00
1
Step 901000
Ar 1.126366e+00 0.000000e+00 0.000000e+00
1
Step 902000
Ar 9.194916e-01 0.000000e+00 0.000000e+00
1
Step 903000
Ar 9.675190e-01 0.000000e+00 0.000000e+00
1
Step 904000
Ar 9.520060e-01 0.000000e+00 0.000000e+00
1
Step 905000
Ar 1.138558e+00 0.000000e+00 0.000000e+00
1
Step 906000
Ar 1.080947e+00 0.000000e+00 0.000000e+00
1
Step 907000
Ar 9.793629e-01 0.000000e+00 0.000000e+00
1
Step 908000
Ar 1.080074e+00 0.000000e+00 0.000000e+00
1
Step 909000
Ar 9.286473e-01 0.000000e+00 0.000000e+00
1
Step 910000
Ar 1.089811e+00 0.000000e+00 0.000000e+00
1
Step 911000
Ar 9.939047e-01 0.000000e+00 0.000000e+00
1
Step 912000
Ar 1.116737e+00 0.000000e+00 0.000000e+00
1
Step 913000
Ar 9.845697e-01 0.000000e+00 0.000000e+00
1
Step 914000
Ar 9.639218e-01 0.000000e+00 0.000000e+00
1
Step 915000
Ar 9.392736e-01 0.000000e+00 0.000000e+00
1
Step 916000
Ar 1.044836e+00 0.000000e+00 0.000000e+00
1
Step 917000
Ar 9.514358e-01 0.000000e+00 0.000000e+00
1
Step 918000
Ar 1.011538e+00 0.000000e+00 0.000000e+00
1
Step 919000
Ar 1.042965e+00 0.000000e+00 0.000000e+00
1
Step 920000
Ar 9.095976e-01 0.000000e+00 0.000000e+00
1
Step 921000
Ar 9.976341e-01 0.000000e+00 0.000000e+00
1
Step 922000
Ar 9.925038e-01 0.000000e+00 0.000000e+00
1
Step 923000
Ar 1.152551e+00 0.000000e+00 0.000000e+00
1
Step 924000
Ar 1.157019e+00 0.000000e+00 0.000000e+00
1
Step 925000
Ar 9.371492e-01 0.000000e+00 0.000000e+00
1
Step 926000
Ar 1.151460e+00 0.000000e+00 0.000000e+00
1
Step 927000
Ar 1.021003e+00 0.000000e+00 0.000000e+00
1
Step 928000
Ar 1.083218e+00 0.000000e+00 0.000000e+00
1
Step 929000
Ar 1.062531e+00 0.000000e+00 0.000000e+00
1
Step 930000
Ar 1.062201e+00 0.000000e+00 0.000000e+00
1
Step 931000
Ar 1.123944e+00 0.000000e+00 0.000000e+00
1
Step 932000
Ar 1.044205e+00 0.000000e+00 0.000000e+00
1
Step 933000
Ar 1.030335e+00 0.000000e+00 0.000000e+00
1
Step 934000
Ar 9.504544e-01 0.000000e+00 0.000000e+00
1
Step 935000
Ar 1.266391e+00 0.000000e+00 0.000000e+00
1
Step 936000
Ar 1.104170e+00 0.000000e+00 0.000000e+00
1
Step 937000
Ar 9.813251e-01 0.000000e+00 0.000000e+00
1
Step 938000
Ar 9.326576e-01 0.000000e+00 0.000000e+00
1
Step 939000
Ar 1.133684e+00 0.000000e+00 0.000000e+00
1
Step 940000
Ar 9.873450e-01 0.000000e+00 0.000000e+00
1
Step 941000
Ar 1.051587e+00 0.000000e+00 0.000000e+00
1
Step 942000
Ar 1.018134e+00 0.000000e+00 0.000000e+00
1
Step 943000
Ar 1.080288e+00 0.000000e+00 0.000000e+00
1
Step 944000
Ar 1.227505e+00 0.000000e+00 0.000000e+00
1
Step 945000
Ar 1.125802e+00 0.000000e+00 0.000000e+00
1
Step 946000
Ar 9.536041e-01 0.000000e+00 0.000000e+00
1
Step 947000
Ar 1.016299e+00 0.000000e+00 0.000000e+00
1
Step 948000
Ar 1.006596e+00 0.000000e+00 0.000000e+00
1
Step 949000
Ar 9.800433e-01 0.000000e+00 0.000000e+00
1
Step 950000
Ar 9.730027e-01 0.000000e+00 0.000000e+00
1
Step 951000
Ar 9.578988e-01 0.000000e+00 0.000000e+00
1
Step 952000
Ar 1.087365e+00 0.000000e+00 0.000000e+00
1
Step 953000
Ar 9.556819e-01 0.000000e+00 0.000000e+00
1
Step 954000
Ar 1.064820e+00 0.000000e+00 0.000000e+00
1
Step 955000
Ar 1.100999e+00 0.000000e+00 0.000000e+00
1
Step 956000
Ar 9.971584e-01 0.000000e+00 0.000000e+00
1
Step 957000
Ar 9.934717e-01 0.000000e+00 0.000000e+00
1
Step 958000
Ar 1.016780e+00 0.000000e+00 0.000000e+00
1
Step 959000
Ar 9.786577e-01 0.000000e+00 0.000000e+00
1
Step 960000
Ar 1.104117e+00 0.000000e+00 0.000000e+00
1
Step 961000
Ar 1.020703e+00 0.000000e+00 0.000000e+00
1
Step 962000
Ar 9.608008e-01 0.000000e+00 0.000000e+00
1
Step 963000
Ar 9.934302e-01 0.000000e+00 0.000000e+00
1
Step 964000
Ar 9.192888e-01 0.000000e+00 0.000000e+00
1
Step 965000
Ar 1.030098e+00 0.000000e+00 0.000000e+00
1
Step 966000
Ar 1.149535e+00 0.000000e+00 0.000000e+00
1
Step 967000
Ar 1.003627e+00 0.000000e+00 0.000000e+00
1
Step 968000
Ar 1.112910e+00 0.000000e+00 0.000000e+00
1
Step 969000
Ar 1.067611e+00 0.000000e+00 0.000000e+00
1
Step 970000
Ar 1.170392e+00 0.000000e+00 0.000000e+00
1
Step 971000
Ar 1.018004e+00 0.000000e+00 0.000000e+00
1
Step 972000
Ar 1.084107e+00 0.000000e+00 0.000000e+00
1
Step 973000
Ar 1.048549e+00 0.000000e+00 0.000000e+00
1
Step 974000
Ar 1.039247e+00 0.000000e+00 0.000000e+00
1
Step 975000
Ar 1.045345e+00 0.000000e+00 0.000000e+00
1
Step 976000
Ar 1.029750e+00 0.000000e+00 0.000000e+00
1
Step 977000
Ar 1.081992e+00 0.000000e+00 0.000000e+00
1
Step 978000
Ar 9.472929e-01 0.000000e+00 0.000000e+00
1
Step 979000
Ar 1.101304e+00 0.000000e+00 0.000000e+00
1
Step 980000
Ar 1.014576e+00 0.000000e+00 0.000000e+00
1
Step 981000
Ar 1.140796e+00 0.000000e+00 0.000000e+00
1
Step 982000
Ar 9.138443e-01 0.000000e+00 0.000000e+00
1
Step 983000
Ar 9.491644e-01 0.000000e+00 0.000000e+00
1
Step 984000
Ar 9.511266e-01 0.000000e+00 0.000000e+00
1
Step 985000
Ar 9.674850e-01 0.000000e+00 0.000000e+00
1
Step 986000
Ar 9.246067e-01 0.000000e+00 0.000000e+00
1
Step 987000
Ar 9.179104e-01 0.000000e+00 0.000000e+00
1
Step 988000
Ar 1.050041e+00 0.000000e+00 0.000000e+00
1
Step 989000
Ar 1.083708e+00 0.000000e+00 0.000000e+00
1
Step 990000
Ar 1.076892e+00 0.000000e+00 0.000000e+00
1
Step 991000
Ar 1.047493e+00 0.000000e+00 0.000000e+00
1
Step 992000
Ar 1.053404e+00 0.000000e+00 0.000000e+00
1
Step 993000
Ar 1.133750e+00 0.000000e+00 0.000000e+00
1
Step 994000
Ar 1.074648e+00 0.000000e+00 0.000000e+00
1
Step 995000
Ar 1.054307e+00 0.000000e+00 0.000000e+00
1
Step 996000
Ar 1.002189e+00 0.000000e+00 0.000000e+00
1
Step 997000
Ar 1.026328e+00 0.000000e+00 0.000000e+00
1
Step 998000
Ar 9.564864e-01 0.000000e+00 0.000000e+00
1
Step 999000
Ar 1.042649e+00 0.000000e+00 0.000000e+00
