1
Step 120000
Ar 1.160258e+00 0.000000e+00 0.000000e+00
1
Step 121000
Ar 9.602343e-01 0.000000e+00 0.000000e+00
1
Step 122000
Ar 9.562151e-01 0.000000e+00 0.000000e+00
1
Step 123000
Ar 1.002373e+00 0.000000e+00 0.000000e+00
1
Step 124000
Ar 1.034001e+00 0.000000e+00 0.000000e+00
1
Step 125000
Ar 9.121882e-01 0.000000e+00 0.000000e+00
1
Step 126000
Ar 1.068402e+00 0.000000e+00 0.000000e+00
1
Step 127000
Ar 1.077705e+00 0.000000e+00 0.000000e+00
1
Step 128000
Ar 1.041744e+00 0.000000e+00 0.000000e+00
1
Step 129000
Ar 9.143893e-01 0.000000e+00 0.000000e+00
1
Step 130000
Ar 1.004024e+00 0.000000e+00 0.000000e+00
1
Step 131000
Ar 9.792296e-01 0.000000e+00 0.000000e+00
1
Step 132000
Ar 6.349492e-01 0.000000e+00 0.000000e+00
1
Step 133000
Ar 1.036213e+00 0.000000e+00 0.000000e+00
1
Step 134000
Ar 1.062138e+00 0.000000e+00 0.000000e+00
1
Step 135000
Ar 7.972865e-01 0.000000e+00 0.000000e+00
1
Step 136000
Ar 1.187474e+00 0.000000e+00 0.000000e+00
1
Step 137000
Ar 9.822616e-01 0.000000e+00 0.000000e+00
1
Step 138000
Ar 8.537125e-01 0.000000e+00 0.000000e+00
1
Step 139000
Ar 9.892143e-01 0.000000e+00 0.000000e+00
1
Step 140000
Ar 1.056383e+00 0.000000e+00 0.000000e+00
1
Step 141000
Ar 8.391454e-01 0.000000e+00 0.000000e+00
1
Step 142000
Ar 8.951171e-01 0.000000e+00 0.000000e+00
1
Step 143000
Ar 8.855339e-01 0.000000e+00 0.000000e+00
1
Step 144000
Ar 1.054722e+00 0.000000e+00 0.000000e+00
1
Step 145000
Ar 1.035991e+00 0.000000e+00 0.000000e+00
1
Step 146000
Ar 6.040293e-01 0.000000e+00 0.000000e+00
1
Step 147000
Ar 1.097923e+00 0.000000e+00 0.000000e+00
1
Step 148000
Ar 1.246797e+00 0.000000e+00 0.000000e+00
1
Step 149000
Ar 7.923538e-01 0.000000e+00 0.000000e+00
1
Step 150000
Ar 9.721419e-01 0.000000e+00 0.000000e+00
1
Step 151000
Ar 9.726307e-01 0.000000e+00 0.000000e+00
1
Step 152000
Ar 1.148168e+00 0.000000e+00 0.000000e+00
1
Step 153000
Ar 8.029432e-01 0.000000e+00 0.000000e+00
1
Step 154000
Ar 7.995282e-01 0.000000e+00 0.000000e+00
1
Step 155000
Ar 8.817139e-01 0.000000e+00 0.000000e+00
1
Step 156000
Ar 1.026280e+00 0.000000e+00 0.000000e+00
1
Step 157000
Ar 9.363960e-01 0.000000e+00 0.000000e+00
1
Step 158000
Ar 1.008545e+00 0.000000e+00 0.000000e+00
1
Step 159000
Ar 1.044273e+00 0.000000e+00 0.000000e+00
1
Step 160000
Ar 9.843736e-01 0.000000e+00 0.000000e+00
1
Step 161000
Ar 1.149195e+00 0.000000e+00 0.000000e+00
1
Step 162000
Ar 8.942470e-01 0.000000e+00 0.000000e+00
1
Step 163000
Ar 1.169969e+00 0.000000e+00 0.000000e+00
1
Step 164000
Ar 1.104641e+00 0.000000e+00 0.000000e+00
1
Step 165000
Ar 1.145078e+00 0.000000e+00 0.000000e+00
1
Step 166000
Ar 9.140924e-01 0.000000e+00 0.000000e+00
1
Step 167000
Ar 1.120457e+00 0.000000e+00 0.000000e+00
1
Step 168000
Ar 1.111044e+00 0.000000e+00 0.000000e+00
1
Step 169000
Ar 1.101024e+00 0.000000e+00 0.000000e+00
1
Step 170000
Ar 1.021047e+00 0.000000e+00 0.000000e+00
1
Step 171000
Ar 1.201621e+00 0.000000e+00 0.000000e+00
1
Step 172000
Ar 8.440146e-01 0.000000e+00 0.000000e+00
1
Step 173000
Ar 8.452924e-01 0.000000e+00 0.000000e+00
1
Step 174000
Ar 1.014205e+00 0.000000e+00 0.000000e+00
1
Step 175000
Ar 9.150802e-01 0.000000e+00 0.000000e+00
1
Step 176000
Ar 9.898821e-01 0.000000e+00 0.000000e+00
1
Step 177000
Ar 9.956377e-01 0.000000e+00 0.000000e+00
1
Step 178000
Ar 1.090396e+00 0.000000e+00 0.000000e+00
1
Step 179000
Ar 9.703285e-01 0.000000e+00 0.000000e+00
1
Step 180000
Ar 1.120694e+00 0.000000e+00 0.000000e+00
1
Step 181000
Ar 8.446555e-01 0.000000e+00 0.000000e+00
1
Step 182000
Ar 9.471239e-01 0.000000e+00 0.000000e+00
1
Step 183000
Ar 9.171288e-01 0.000000e+00 0.000000e+00
1
Step 184000
Ar 1.117310e+00 0.000000e+00 0.000000e+00
1
Step 185000
Ar 1.029498e+00 0.000000e+00 0.000000e+00
1
Step 186000
Ar 1.054636e+00 0.000000e+00 0.000000e+00
1
Step 187000
Ar 9.705121e-01 0.000000e+00 0.000000e+00
1
Step 188000
Ar 1.111468e+00 0.000000e+00 0.000000e+00
1
Step 189000
Ar 9.797217e-01 0.000000e+00 0.000000e+00
1
Step 190000
Ar 1.008987e+00 0.000000e+00 0.000000e+00
1
Step 191000
Ar 8.358373e-01 0.000000e+00 0.000000e+00
1
Step 192000
Ar 1.091525e+00 0.000000e+00 0.000000e+00
1
Step 193000
Ar 1.110908e+00 0.000000e+00 0.000000e+00
1
Step 194000
Ar 9.301503e-01 0.000000e+00 0.000000e+00
1
Step 195000
Ar 9.155738e-01 0.000000e+00 0.000000e+00
1
Step 196000
Ar 9.022669e-01 0.000000e+00 0.000000e+00
1
Step 197000
Ar 8.541673e-01 0.000000e+00 0.000000e+00
1
Step 198000
Ar 8.913663e-01 0.000000e+00 0.000000e+00
1
Step 199000
Ar 1.020425e+00 0.000000e+00 0.000000e+00
1
Step 200000
Ar 1.111657e+00 0.000000e+00 0.000000e+00
1
Step 201000
Ar 8.080981e-01 0.000000e+00 0.000000e+00
1
Step 202000
Ar 1.015505e+00 0.000000e+00 0.000000e+00
1
Step 203000
Ar 9.331191e-01 0.000000e+00 0.000000e+00
1
Step 204000
Ar 1.153077e+00 0.000000e+00 0.000000e+00
1
Step 205000
Ar 1.010392e+00 0.000000e+00 0.000000e+00
1
Step 206000
Ar 9.883353e-01 0.000000e+00 0.000000e+00
1
Step 207000
Ar 1.101228e+00 0.000000e+00 0.000000e+00
1
Step 208000
Ar 9.205563e-01 0.000000e+00 0.000000e+00
1
Step 209000
Ar 9.502663e-01 0.000000e+00 0.000000e+00
1
Step 210000
Ar 1.071552e+00 0.000000e+00 0.000000e+00
1
Step 211000
Ar 1.082140e+00 0.000000e+00 0.000000e+00
1
Step 212000
Ar 8.279187e-01 0.000000e+00 0.000000e+00
1
Step 213000
Ar 9.994162e-01 0.000000e+00 0.000000e+00
1
Step 214000
Ar 1.089341e+00 0.000000e+00 0.000000e+00
1
Step 215000
Ar 9.671397e-01 0.000000e+00 0.000000e+00
1
Step 216000
Ar 1.034821e+00 0.000000e+00 0.000000e+00
1
Step 217000
Ar 9.168605e-01 0.000000e+00 0.000000e+00
1
Step 218000
Ar 1.049083e+00 0.000000e+00 0.000000e+00
1
Step 219000
Ar 9.256223e-01 0.000000e+00 0.000000e+00
1
Step 220000
Ar 1.151529e+00 0.000000e+00 0.000000e+00
1
Step 221000
Ar 9.627272e-01 0.000000e+00 0.000000e+00
1
Step 222000
Ar 1.076039e+00 0.000000e+00 0.000000e+00
1
Step 223000
Ar 8.009017e-01 0.000000e+00 0.000000e+00
1
Step 224000
Ar 9.718412e-01 0.000000e+00 0.000000e+00
1
Step 225000
Ar 6.644765e-01 0.000000e+00 0.000000e+00
1
Step 226000
Ar 1.098220e+00 0.000000e+00 0.000000e+00
1
Step 227000
Ar 7.208598e-01 0.000000e+00 0.000000e+00
1
Step 228000
Ar 1.071421e+00 0.000000e+00 0.000000e+00
1
Step 229000
Ar 1.008165e+00 0.000000e+00 0.000000e+00
1
Step 230000
Ar 9.306118e-01 0.000000e+00 0.000000e+00
1
Step 231000
Ar 9.116920e-01 0.000000e+00 0.000000e+00
1
Step 232000
Ar 7.374360e-01 0.000000e+00 0.000000e+00
1
Step 233000
Ar 8.802511e-01 0.000000e+00 0.000000e+00
1
Step 234000
Ar 1.013456e+00 0.000000e+00 0.000000e+00
1
Step 235000
Ar 9.721541e-01 0.000000e+00 0.000000e+00
1
Step 236000
Ar 1.085254e+00 0.000000e+00 0.000000e+00
1
Step 237000
Ar 1.001540e+00 0.000000e+00 0.000000e+00
1
Step 238000
Ar 9.436698e-01 0.000000e+00 0.000000e+00
1
Step 239000
Ar 7.160419e-01 0.000000e+00 0.000000e+00
1
Step 240000
Ar 9.448708e-01 0.000000e+00 0.000000e+00
1
Step 241000
Ar 1.042242e+00 0.000000e+00 0.000000e+00
1
Step 242000
Ar 7.504004e-01 0.000000e+00 0.000000e+00
1
Step 243000
Ar 1.027602e+00 0.000000e+00 0.000000e+00
1
Step 244000
Ar 8.826080e-01 0.000000e+00 0.000000e+00
1
Step 245000
Ar 9.771075e-01 0.000000e+00 0.000000e+00
1
Step 246000
Ar 9.541256e-01 0.000000e+00 0.000000e+00
1
Step 247000
Ar 9.066899e-01 0.000000e+00 0.000000e+00
1
Step 248000
Ar 9.723903e-01 0.000000e+00 0.000000e+00
1
Step 249000
Ar 1.038874e+00 0.000000e+00 0.000000e+00
1
Step 250000
Ar 9.613473e-01 0.000000e+00 0.000000e+00
1
Step 251000
Ar 1.046877e+00 0.000000e+00 0.000000e+00
1
Step 252000
Ar 1.073316e+00 0.000000e+00 0.000000e+00
1
Step 253000
Ar 8.418558e-01 0.000000e+00 0.000000e+00
1
Step 254000
Ar 9.874539e-01 0.000000e+00 0.000000e+00
1
Step 255000
Ar 9.704324e-01 0.000000e+00 0.000000e+00
1
Step 256000
Ar 9.888055e-01 0.000000e+00 0.000000e+00
1
Step 257000
Ar 9.865336e-01 0.000000e+00 0.000000e+00
1
Step 258000
Ar 9.990401e-01 0.000000e+00 0.000000e+00
1
Step 259000
Ar 7.936593e-01 0.000000e+00 0.000000e+00
1
Step 260000
Ar 1.063029e+00 0.000000e+00 0.000000e+00
1
Step 261000
Ar 1.024647e+00 0.000000e+00 0.000000e+00
1
Step 262000
Ar 6.681708e-01 0.000000e+00 0.000000e+00
1
Step 263000
Ar 1.073022e+00 0.000000e+00 0.000000e+00
1
Step 264000
Ar 9.614585e-01 0.000000e+00 0.000000e+00
1
Step 265000
Ar 9.365469e-01 0.000000e+00 0.000000e+00
1
Step 266000
Ar 1.094300e+00 0.000000e+00 0.000000e+00
1
Step 267000
Ar 1.115294e+00 0.000000e+00 0.000000e+00
1
Step 268000
Ar 1.123237e+00 0.000000e+00 0.000000e+00
1
Step 269000
Ar 1.095869e+00 0.000000e+00 0.000000e+00
1
Step 270000
Ar 9.978155e-01 0.000000e+00 0.000000e+00
1
Step 271000
Ar 9.590706e-01 0.000000e+00 0.000000e+00
1
Step 272000
Ar 9.349683e-01 0.000000e+00 0.000000e+00
1
Step 273000
Ar 1.000067e+00 0.000000e+00 0.000000e+00
1
Step 274000
Ar 1.114210e+00 0.000000e+00 0.000000e+00
1
Step 275000
Ar 9.897685e-01 0.000000e+00 0.000000e+00
1
Step 276000
Ar 1.029010e+00 0.000000e+00 0.000000e+00
1
Step 277000
Ar 1.100384e+00 0.000000e+00 0.000000e+00
1
Step 278000
Ar 9.712208e-01 0.000000e+00 0.000000e+00
1
Step 279000
Ar 9.586320e-01 0.000000e+00 0.000000e+00
1
Step 280000
Ar 9.742419e-01 0.000000e+00 0.000000e+00
1
Step 281000
Ar 9.480135e-01 0.000000e+00 0.000000e+00
1
Step 282000
Ar 7.950549e-01 0.000000e+00 0.000000e+00
1
Step 283000
Ar 8.657501e-01 0.000000e+00 0.000000e+00
1
Step 284000
Ar 1.013320e+00 0.000000e+00 0.000000e+00
1
Step 285000
Ar 1.128140e+00 0.000000e+00 0.000000e+00
1
Step 286000
Ar 9.803877e-01 0.000000e+00 0.000000e+00
1
Step 287000
Ar 8.670551e-01 0.000000e+00 0.000000e+00
1
Step 288000
Ar 7.779956e-01 0.000000e+00 0.000000e+00
1
Step 289000
Ar 9.890661e-01 0.000000e+00 0.000000e+00
1
Step 290000
Ar 9.099198e-01 0.000000e+00 0.000000e+00
1
Step 291000
Ar 1.022031e+00 0.000000e+00 0.000000e+00
1
Step 292000
Ar 9.276130e-01 0.000000e+00 0.000000e+00
1
Step 293000
Ar 1.001271e+00 0.000000e+00 0.000000e+00
1
Step 294000
Ar 1.066522e+00 0.000000e+00 0.000000e+00
1
Step 295000
Ar 7.918353e-01 0.000000e+00 0.000000e+00
1
Step 296000
Ar 8.972469e-01 0.000000e+00 0.000000e+00
1
Step 297000
Ar 1.082594e+00 0.000000e+00 0.000000e+00
1
Step 298000
Ar 1.119747e+00 0.000000e+00 0.000000e+00
1
Step 299000
Ar 6.260865e-01 0.000000e+00 0.000000e+00
1
Step 300000
Ar 9.457683e-01 0.000000e+00 0.000000e+00
1
Step 301000
Ar 9.917361e-01 0.000000e+00 0.000000e+00
1
Step 302000
Ar 1.081053e+00 0.000000e+00 0.000000e+00
1
Step 303000
Ar 9.015713e-01 0.000000e+00 0.000000e+00
1
Step 304000
Ar 9.511072e-01 0.000000e+00 0.000000e+00
1
Step 305000
Ar 8.819387e-01 0.000000e+00 0.000000e+00
1
Step 306000
Ar 1.054460e+00 0.000000e+00 0.000000e+00
1
Step 307000
Ar 9.245850e-01 0.000000e+00 0.000000e+00
1
Step 308000
Ar 9.557751e-01 0.000000e+00 0.000000e+00
1
Step 309000
Ar 9.788746e-01 0.000000e+00 0.000000e+00
1
Step 310000
Ar 9.921684e-01 0.000000e+00 0.000000e+00
1
Step 311000
Ar 9.481188e-01 0.000000e+00 0.000000e+00
1
Step 312000
Ar 9.062192e-01 0.000000e+00 0.000000e+00
1
Step 313000
Ar 9.104096e-01 0.000000e+00 0.000000e+00
1
Step 314000
Ar 7.956730e-01 0.000000e+00 0.000000e+00
1
Step 315000
Ar 1.025113e+00 0.000000e+00 0.000000e+00
1
Step 316000
Ar 1.067376e+00 0.000000e+00 0.000000e+00
1
Step 317000
Ar 1.070504e+00 0.000000e+00 0.000000e+00
1
Step 318000
Ar 9.547243e-01 0.000000e+00 0.000000e+00
1
Step 319000
Ar 9.065413e-01 0.000000e+00 0.000000e+00
1
Step 320000
Ar 9.672110e-01 0.000000e+00 0.000000e+00
1
Step 321000
Ar 9.852862e-01 0.000000e+00 0.000000e+00
1
Step 322000
Ar 1.120838e+00 0.000000e+00 0.000000e+00
1
Step 323000
Ar 1.042139e+00 0.000000e+00 0.000000e+00
1
Step 324000
Ar 8.953665e-01 0.000000e+00 0.000000e+00
1
Step 325000
Ar 9.469644e-01 0.000000e+00 0.000000e+00
1
Step 326000
Ar 9.442837e-01 0.000000e+00 0.000000e+00
1
Step 327000
Ar 9.838195e-01 0.000000e+00 0.000000e+00
1
Step 328000
Ar 9.548176e-01 0.000000e+00 0.000000e+00
1
Step 329000
Ar 7.802504e-01 0.000000e+00 0.000000e+00
1
Step 330000
Ar 8.967603e-01 0.000000e+00 0.000000e+00
1
Step 331000
Ar 8.584456e-01 0.000000e+00 0.000000e+00
1
Step 332000
Ar 9.000692e-01 0.000000e+00 0.000000e+00
1
Step 333000
Ar 1.001928e+00 0.000000e+00 0.000000e+00
1
Step 334000
Ar 9.991483e-01 0.000000e+00 0.000000e+00
1
Step 335000
Ar 9.671309e-01 0.000000e+00 0.000000e+00
1
Step 336000
Ar 1.027430e+00 0.000000e+00 0.000000e+00
1
Step 337000
Ar 9.082685e-01 0.000000e+00 0.000000e+00
1
Step 338000
Ar 1.000129e+00 0.000000e+00 0.000000e+00
1
Step 339000
Ar 1.114963e+00 0.000000e+00 0.000000e+00
1
Step 340000
Ar 1.052500e+00 0.000000e+00 0.000000e+00
1
Step 341000
Ar 1.110058e+00 0.000000e+00 0.000000e+00
1
Step 342000
Ar 1.064845e+00 0.000000e+00 0.000000e+00
1
Step 343000
Ar 1.023511e+00 0.000000e+00 0.000000e+00
1
Step 344000
Ar 9.569792e-01 0.000000e+00 0.000000e+00
1
Step 345000
Ar 9.707396e-01 0.000000e+00 0.000000e+00
1
Step 346000
Ar 9.176860e-01 0.000000e+00 0.000000e+00
1
Step 347000
Ar 1.108167e+00 0.000000e+00 0.000000e+00
1
Step 348000
Ar 1.043246e+00 0.000000e+00 0.000000e+00
1
Step 349000
Ar 1.097373e+00 0.000000e+00 0.000000e+00
1
Step 350000
Ar 1.094073e+00 0.000000e+00 0.000000e+00
1
Step 351000
Ar 7.241033e-01 0.000000e+00 0.000000e+00
1
Step 352000
Ar 7.087952e-01 0.000000e+00 0.000000e+00
1
Step 353000
Ar 9.736673e-01 0.000000e+00 0.000000e+00
1
Step 354000
Ar 9.788724e-01 0.000000e+00 0.000000e+00
1
Step 355000
Ar 1.092843e+00 0.000000e+00 0.000000e+00
1
Step 356000
Ar 9.913155e-01 0.000000e+00 0.000000e+00
1
Step 357000
Ar 9.866316e-01 0.000000e+00 0.000000e+00
1
Step 358000
Ar 9.551676e-01 0.000000e+00 0.000000e+00
1
Step 359000
Ar 1.061008e+00 0.000000e+00 0.000000e+00
1
Step 360000
Ar 6.977312e-01 0.000000e+00 0.000000e+00
1
Step 361000
Ar 9.385132e-01 0.000000e+00 0.000000e+00
1
Step 362000
Ar 8.370602e-01 0.000000e+00 0.000000e+00
1
Step 363000
Ar 1.011219e+00 0.000000e+00 0.000000e+00
1
Step 364000
Ar 1.086676e+00 0.000000e+00 0.000000e+00
1
Step 365000
Ar 9.809844e-01 0.000000e+00 0.000000e+00
1
Step 366000
Ar 1.009760e+00 0.000000e+00 0.000000e+00
1
Step 367000
Ar 1.125369e+00 0.000000e+00 0.000000e+00
1
Step 368000
Ar 9.660979e-01 0.000000e+00 0.000000e+00
1
Step 369000
Ar 9.575807e-01 0.000000e+00 0.000000e+00
1
Step 370000
Ar 1.048927e+00 0.000000e+00 0.000000e+00
1
Step 371000
Ar 8.527479e-01 0.000000e+00 0.000000e+00
1
Step 372000
Ar 7.711561e-01 0.000000e+00 0.000000e+00
1
Step 373000
Ar 9.472823e-01 0.000000e+00 0.000000e+00
1
Step 374000
Ar 1.118638e+00 0.000000e+00 0.000000e+00
1
Step 375000
Ar 7.967087e-01 0.000000e+00 0.000000e+00
1
Step 376000
Ar 8.021935e-01 0.000000e+00 0.000000e+00
1
Step 377000
Ar 9.847023e-01 0.000000e+00 0.000000e+00
1
Step 378000
Ar 1.105031e+00 0.000000e+00 0.000000e+00
1
Step 379000
Ar 1.047051e+00 0.000000e+00 0.000000e+00
1
Step 380000
Ar 1.117536e+00 0.000000e+00 0.000000e+00
1
Step 381000
Ar 9.394837e-01 0.000000e+00 0.000000e+00
1
Step 382000
Ar 1.066809e+00 0.000000e+00 0.000000e+00
1
Step 383000
Ar 8.672192e-01 0.000000e+00 0.000000e+00
1
Step 384000
Ar 1.088354e+00 0.000000e+00 0.000000e+00
1
Step 385000
Ar 1.069472e+00 0.000000e+00 0.000000e+00
1
Step 386000
Ar 9.208343e-01 0.000000e+00 0.000000e+00
1
Step 387000
Ar 1.021294e+00 0.000000e+00 0.000000e+00
1
Step 388000
Ar 7.059384e-01 0.000000e+00 0.000000e+00
1
Step 389000
Ar 1.067047e+00 0.000000e+00 0.000000e+00
1
Step 390000
Ar 9.173569e-01 0.000000e+00 0.000000e+00
1
Step 391000
Ar 8.258154e-01 0.000000e+00 0.000000e+00
1
Step 392000
Ar 9.609906e-01 0.000000e+00 0.000000e+00
1
Step 393000
Ar 9.939356e-01 0.000000e+00 0.000000e+00
1
Step 394000
Ar 8.996414e-01 0.000000e+00 0.000000e+00
1
Step 395000
Ar 1.135447e+00 0.000000e+00 0.000000e+00
1
Step 396000
Ar 7.909501e-01 0.000000e+00 0.000000e+00
1
Step 397000
Ar 9.479513e-01 0.000000e+00 0.000000e+00
1
Step 398000
Ar 9.418614e-01 0.000000e+00 0.000000e+00
1
Step 399000
Ar 7.670381e-01 0.000000e+00 0.000000e+00
1
Step 400000
Ar 9.200135e-01 0.000000e+00 0.000000e+00
1
Step 401000
Ar 8.258644e-01 0.000000e+00 0.000000e+00
1
Step 402000
Ar 1.025942e+00 0.000000e+00 0.000000e+00
1
Step 403000
Ar 8.912991e-01 0.000000e+00 0.000000e+00
1
Step 404000
Ar 1.072173e+00 0.000000e+00 0.000000e+00
1
Step 405000
Ar 9.431421e-01 0.000000e+00 0.000000e+00
1
Step 406000
Ar 8.869131e-01 0.000000e+00 0.000000e+00
1
Step 407000
Ar 1.062032e+00 0.000000e+00 0.000000e+00
1
Step 408000
Ar 1.059121e+00 0.000000e+00 0.000000e+00
1
Step 409000
Ar 9.269973e-01 0.000000e+00 0.000000e+00
1
Step 410000
Ar 9.932514e-01 0.000000e+00 0.000000e+00
1
Step 411000
Ar 8.500192e-01 0.000000e+00 0.000000e+00
1
Step 412000
Ar 1.042125e+00 0.000000e+00 0.000000e+00
1
Step 413000
Ar 9.448783e-01 0.000000e+00 0.000000e+00
1
Step 414000
Ar 9.911236e-01 0.000000e+00 0.000000e+00
1
Step 415000
Ar 1.098790e+00 0.000000e+00 0.000000e+00
1
Step 416000
Ar 9.823858e-01 0.000000e+00 0.000000e+00
1
Step 417000
Ar 7.770317e-01 0.000000e+00 0.000000e+00
1
Step 418000
Ar 1.057752e+00 0.000000e+00 0.000000e+00
1
Step 419000
Ar 9.876912e-01 0.000000e+00 0.000000e+00
1
Step 420000
Ar 8.627107e-01 0.000000e+00 0.000000e+00
1
Step 421000
Ar 1.017790e+00 0.000000e+00 0.000000e+00
1
Step 422000
Ar 9.711086e-01 0.000000e+00 0.000000e+00
1
Step 423000
Ar 8.894196e-01 0.000000e+00 0.000000e+00
1
Step 424000
Ar 8.172429e-01 0.000000e+00 0.000000e+00
1
Step 425000
Ar 1.126257e+00 0.000000e+00 0.000000e+00
1
Step 426000
Ar 1.118436e+00 0.000000e+00 0.000000e+00
1
Step 427000
Ar 1.046864e+00 0.000000e+00 0.000000e+00
1
Step 428000
Ar 1.086219e+00 0.000000e+00 0.000000e+00
1
Step 429000
Ar 1.013538e+00 0.000000e+00 0.000000e+00
1
Step 430000
Ar 8.249341e-01 0.000000e+00 0.000000e+00
1
Step 431000
Ar 1.030162e+00 0.000000e+00 0.000000e+00
1
Step 432000
Ar 1.037727e+00 0.000000e+00 0.000000e+00
1
Step 433000
Ar 8.720453e-01 0.000000e+00 0.000000e+00
1
Step 434000
Ar 1.077507e+00 0.000000e+00 0.000000e+00
1
Step 435000
Ar 9.165617e-01 0.000000e+00 0.000000e+00
1
Step 436000
Ar 1.075264e+00 0.000000e+00 0.000000e+00
1
Step 437000
Ar 9.776033e-01 0.000000e+00 0.000000e+00
1
Step 438000
Ar 9.261935e-01 0.000000e+00 0.000000e+00
1
Step 439000
Ar 7.282594e-01 0.000000e+00 0.000000e+00
1
Step 440000
Ar 1.068823e+00 0.000000e+00 0.000000e+00
1
Step 441000
Ar 1.004918e+00 0.000000e+00 0.000000e+00
1
Step 442000
Ar 9.395195e-01 0.000000e+00 0.000000e+00
1
Step 443000
Ar 7.298841e-01 0.000000e+00 0.000000e+00
1
Step 444000
Ar 8.116944e-01 0.000000e+00 0.000000e+00
1
Step 445000
Ar 1.023689e+00 0.000000e+00 0.000000e+00
1
Step 446000
Ar 8.645793e-01 0.000000e+00 0.000000e+00
1
Step 447000
Ar 9.850911e-01 0.000000e+00 0.000000e+00
1
Step 448000
Ar 1.125875e+00 0.000000e+00 0.000000e+00
1
Step 449000
Ar 8.764375e-01 0.000000e+00 0.000000e+00
1
Step 450000
Ar 7.952203e-01 0.000000e+00 0.000000e+00
1
Step 451000
Ar 1.055240e+00 0.000000e+00 0.000000e+00
1
Step 452000
Ar 9.860983e-01 0.000000e+00 0.000000e+00
1
Step 453000
Ar 9.116687e-01 0.000000e+00 0.000000e+00
1
Step 454000
Ar 1.097317e+00 0.000000e+00 0.000000e+00
1
Step 455000
Ar 1.076479e+00 0.000000e+00 0.000000e+00
1
Step 456000
Ar 9.766600e-01 0.000000e+00 0.000000e+00
1
Step 457000
Ar 9.617851e-01 0.000000e+00 0.000000e+00
1
Step 458000
Ar 1.112433e+00 0.000000e+00 0.000000e+00
1
Step 459000
Ar 1.011112e+00 0.000000e+00 0.000000e+00
1
Step 460000
Ar 9.737503e-01 0.000000e+00 0.000000e+00
1
Step 461000
Ar 7.696593e-01 0.000000e+00 0.000000e+00
1
Step 462000
Ar 9.504206e-01 0.000000e+00 0.000000e+00
1
Step 463000
Ar 8.787630e-01 0.000000e+00 0.000000e+00
1
Step 464000
Ar 8.507055e-01 0.000000e+00 0.000000e+00
1
Step 465000
Ar 1.066404e+00 0.000000e+00 0.000000e+00
1
Step 466000
Ar 9.483895e-01 0.000000e+00 0.000000e+00
1
Step 467000
Ar 1.068690e+00 0.000000e+00 0.000000e+00
1
Step 468000
Ar 8.997211e-01 0.000000e+00 0.000000e+00
1
Step 469000
Ar 1.121988e+00 0.000000e+00 0.000000e+00
1
Step 470000
Ar 9.885230e-01 0.000000e+00 0.000000e+00
1
Step 471000
Ar 9.088341e-01 0.000000e+00 0.000000e+00
1
Step 472000
Ar 8.302055e-01 0.000000e+00 0.000000e+00
1
Step 473000
Ar 8.587386e-01 0.000000e+00 0.000000e+00
1
Step 474000
Ar 9.126336e-01 0.000000e+00 0.000000e+00
1
Step 475000
Ar 9.365228e-01 0.000000e+00 0.000000e+00
1
Step 476000
Ar 1.042004e+00 0.000000e+00 0.000000e+00
1
Step 477000
Ar 1.097741e+00 0.000000e+00 0.000000e+00
1
Step 478000
Ar 1.116053e+00 0.000000e+00 0.000000e+00
1
Step 479000
Ar 1.003094e+00 0.000000e+00 0.000000e+00
1
Step 480000
Ar 9.349449e-01 0.000000e+00 0.000000e+00
1
Step 481000
Ar 7.712739e-01 0.000000e+00 0.000000e+00
1
Step 482000
Ar 1.093098e+00 0.000000e+00 0.000000e+00
1
Step 483000
Ar 9.273385e-01 0.000000e+00 0.000000e+00
1
Step 484000
Ar 9.987130e-01 0.000000e+00 0.000000e+00
1
Step 485000
Ar 9.555004e-01 0.000000e+00 0.000000e+00
1
Step 486000
Ar 1.099783e+00 0.000000e+00 0.000000e+00
1
Step 487000
Ar 9.442483e-01 0.000000e+00 0.000000e+00
1
Step 488000
Ar 1.085094e+00 0.000000e+00 0.000000e+00
1
Step 489000
Ar 9.483424e-01 0.000000e+00 0.000000e+00
1
Step 490000
Ar 8.370134e-01 0.000000e+00 0.000000e+00
1
Step 491000
Ar 7.813187e-01 0.000000e+00 0.000000e+00
1
Step 492000
Ar 1.072368e+00 0.000000e+00 0.000000e+00
1
Step 493000
Ar 9.036007e-01 0.000000e+00 0.000000e+00
1
Step 494000
Ar 1.062553e+00 0.000000e+00 0.000000e+00
1
Step 495000
Ar 1.072563e+00 0.000000e+00 0.000000e+00
1
Step 496000
Ar 9.611895e-01 0.000000e+00 0.000000e+00
1
Step 497000
Ar 9.022592e-01 0.000000e+00 0.000000e+00
1
Step 498000
Ar 8.749131e-01 0.000000e+00 0.000000e+00
1
Step 499000
Ar 9.991520e-01 0.000000e+00 0.000000e+00
1
Step 500000
Ar 1.025653e+00 0.000000e+00 0.000000e+00
1
Step 501000
Ar 9.957438e-01 0.000000e+00 0.000000e+00
1
Step 502000
Ar 1.069007e+00 0.000000e+00 0.000000e+00
1
Step 503000
Ar 1.116454e+00 0.000000e+00 0.000000e+00
1
Step 504000
Ar 1.086308e+00 0.000000e+00 0.000000e+00
1
Step 505000
Ar 9.214490e-01 0.000000e+00 0.000000e+00
1
Step 506000
Ar 9.947832e-01 0.000000e+00 0.000000e+00
1
Step 507000
Ar 8.565449e-01 0.000000e+00 0.000000e+00
1
Step 508000
Ar 9.381901e-01 0.000000e+00 0.000000e+00
1
Step 509000
Ar 7.452008e-01 0.000000e+00 0.000000e+00
1
Step 510000
Ar 1.089007e+00 0.000000e+00 0.000000e+00
1
Step 511000
Ar 8.545213e-01 0.000000e+00 0.000000e+00
1
Step 512000
Ar 8.874347e-01 0.000000e+00 0.000000e+00
1
Step 513000
Ar 9.850300e-01 0.000000e+00 0.000000e+00
1
Step 514000
Ar 1.141516e+00 0.000000e+00 0.000000e+00
1
Step 515000
Ar 1.110879e+00 0.000000e+00 0.000000e+00
1
Step 516000
Ar 1.005500e+00 0.000000e+00 0.000000e+00
1
Step 517000
Ar 1.098730e+00 0.000000e+00 0.000000e+00
1
Step 518000
Ar 9.472864e-01 0.000000e+00 0.000000e+00
1
Step 519000
Ar 1.065441e+00 0.000000e+00 0.000000e+00
1
Step 520000
Ar 1.008113e+00 0.000000e+00 0.000000e+00
1
Step 521000
Ar 9.145356e-01 0.000000e+00 0.000000e+00
1
Step 522000
Ar 9.859389e-01 0.000000e+00 0.000000e+00
1
Step 523000
Ar 9.218420e-01 0.000000e+00 0.000000e+00
1
Step 524000
Ar 9.399624e-01 0.000000e+00 0.000000e+00
1
Step 525000
Ar 1.103265e+00 0.000000e+00 0.000000e+00
1
Step 526000
Ar 8.759347e-01 0.000000e+00 0.000000e+00
1
Step 527000
Ar 9.752413e-01 0.000000e+00 0.000000e+00
1
Step 528000
Ar 1.090609e+00 0.000000e+00 0.000000e+00
1
Step 529000
Ar 8.622936e-01 0.000000e+00 0.000000e+00
1
Step 530000
Ar 8.965681e-01 0.000000e+00 0.000000e+00
1
Step 531000
Ar 8.934164e-01 0.000000e+00 0.000000e+00
1
Step 532000
Ar 1.049076e+00 0.000000e+00 0.000000e+00
1
Step 533000
Ar 1.099558e+00 0.000000e+00 0.000000e+00
1
Step 534000
Ar 9.799206e-01 0.000000e+00 0.000000e+00
1
Step 535000
Ar 8.597123e-01 0.000000e+00 0.000000e+00
1
Step 536000
Ar 9.793336e-01 0.000000e+00 0.000000e+00
1
Step 537000
Ar 7.967505e-01 0.000000e+00 0.000000e+00
1
Step 538000
Ar 1.064417e+00 0.000000e+00 0.000000e+00
1
Step 539000
Ar 9.400009e-01 0.000000e+00 0.000000e+00
1
Step 540000
Ar 1.107929e+00 0.000000e+00 0.000000e+00
1
Step 541000
Ar 1.015019e+00 0.000000e+00 0.000000e+00
1
Step 542000
Ar 8.110894e-01 0.000000e+00 0.000000e+00
1
Step 543000
Ar 7.878627e-01 0.000000e+00 0.000000e+00
1
Step 544000
Ar 9.036407e-01 0.000000e+00 0.000000e+00
1
Step 545000
Ar 9.557752e-01 0.000000e+00 0.000000e+00
1
Step 546000
Ar 9.889948e-01 0.000000e+00 0.000000e+00
1
Step 547000
Ar 1.090087e+00 0.000000e+00 0.000000e+00
1
Step 548000
Ar 1.065798e+00 0.000000e+00 0.000000e+00
1
Step 549000
Ar 1.062642e+00 0.000000e+00 0.000000e+00
1
Step 550000
Ar 8.947205e-01 0.000000e+00 0.000000e+00
1
Step 551000
Ar 1.090703e+00 0.000000e+00 0.000000e+00
1
Step 552000
Ar 1.063600e+00 0.000000e+00 0.000000e+00
1
Step 553000
Ar 1.077767e+00 0.000000e+00 0.000000e+00
1
Step 554000
Ar 9.878193e-01 0.000000e+00 0.000000e+00
1
Step 555000
Ar 1.032638e+00 0.000000e+00 0.000000e+00
1
Step 556000
Ar 1.064285e+00 0.000000e+00 0.000000e+00
1
Step 557000
Ar 1.101811e+00 0.000000e+00 0.000000e+00
1
Step 558000
Ar 8.654959e-01 0.000000e+00 0.000000e+00
1
Step 559000
Ar 1.082995e+00 0.000000e+00 0.000000e+00
1
Step 560000
Ar 9.658387e-01 0.000000e+00 0.000000e+00
1
Step 561000
Ar 1.120252e+00 0.000000e+00 0.000000e+00
1
Step 562000
Ar 9.311985e-01 0.000000e+00 0.000000e+00
1
Step 563000
Ar 1.041832e+00 0.000000e+00 0.000000e+00
1
Step 564000
Ar 1.055197e+00 0.000000e+00 0.000000e+00
1
Step 565000
Ar 9.129899e-01 0.000000e+00 0.000000e+00
1
Step 566000
Ar 9.230507e-01 0.000000e+00 0.000000e+00
1
Step 567000
Ar 1.063051e+00 0.000000e+00 0.000000e+00
1
Step 568000
Ar 8.900536e-01 0.000000e+00 0.000000e+00
1
Step 569000
Ar 9.513292e-01 0.000000e+00 0.000000e+00
1
Step 570000
Ar 9.868761e-01 0.000000e+00 0.000000e+00
1
Step 571000
Ar 9.352399e-01 0.000000e+00 0.000000e+00
1
Step 572000
Ar 1.004961e+00 0.000000e+00 0.000000e+00
1
Step 573000
Ar 1.082318e+00 0.000000e+00 0.000000e+00
1
Step 574000
Ar 7.934774e-01 0.000000e+00 0.000000e+00
1
Step 575000
Ar 1.130379e+00 0.000000e+00 0.000000e+00
1
Step 576000
Ar 1.019391e+00 0.000000e+00 0.000000e+00
1
Step 577000
Ar 9.033258e-01 0.000000e+00 0.000000e+00
1
Step 578000
Ar 1.024285e+00 0.000000e+00 0.000000e+00
1
Step 579000
Ar 9.614566e-01 0.000000e+00 0.000000e+00
1
Step 580000
Ar 1.007801e+00 0.000000e+00 0.000000e+00
1
Step 581000
Ar 9.101362e-01 0.000000e+00 0.000000e+00
1
Step 582000
Ar 9.956505e-01 0.000000e+00 0.000000e+00
1
Step 583000
Ar 9.249871e-01 0.000000e+00 0.000000e+00
1
Step 584000
Ar 9.235237e-01 0.000000e+00 0.000000e+00
1
Step 585000
Ar 9.066499e-01 0.000000e+00 0.000000e+00
1
Step 586000
Ar 9.339478e-01 0.000000e+00 0.000000e+00
1
Step 587000
Ar 1.001452e+00 0.000000e+00 0.000000e+00
1
Step 588000
Ar 9.275793e-01 0.000000e+00 0.000000e+00
1
Step 589000
Ar 1.024985e+00 0.000000e+00 0.000000e+00
1
Step 590000
Ar 1.056537e+00 0.000000e+00 0.000000e+00
1
Step 591000
Ar 1.053089e+00 0.000000e+00 0.000000e+00
1
Step 592000
Ar 9.495623e-01 0.000000e+00 0.000000e+00
1
Step 593000
Ar 8.836518e-01 0.000000e+00 0.000000e+00
1
Step 594000
Ar 8.968796e-01 0.000000e+00 0.000000e+00
1
Step 595000
Ar 9.297805e-01 0.000000e+00 0.000000e+00
1
Step 596000
Ar 1.056105e+00 0.000000e+00 0.000000e+00
1
Step 597000
Ar 7.908635e-01 0.000000e+00 0.000000e+00
1
Step 598000
Ar 1.090442e+00 0.000000e+00 0.000000e+00
1
Step 599000
Ar 5.598623e-01 0.000000e+00 0.000000e+00
1
Step 600000
Ar 1.065877e+00 0.000000e+00 0.000000e+00
1
Step 601000
Ar 1.080682e+00 0.000000e+00 0.000000e+00
1
Step 602000
Ar 7.980077e-01 0.000000e+00 0.000000e+00
1
Step 603000
Ar 1.107174e+00 0.000000e+00 0.000000e+00
1
Step 604000
Ar 9.226222e-01 0.000000e+00 0.000000e+00
1
Step 605000
Ar 9.184492e-01 0.000000e+00 0.000000e+00
1
Step 606000
Ar 7.833775e-01 0.000000e+00 0.000000e+00
1
Step 607000
Ar 9.781136e-01 0.000000e+00 0.000000e+00
1
Step 608000
Ar 9.760366e-01 0.000000e+00 0.000000e+00
1
Step 609000
Ar 9.849456e-01 0.000000e+00 0.000000e+00
1
Step 610000
Ar 9.140361e-01 0.000000e+00 0.000000e+00
1
Step 611000
Ar 9.655738e-01 0.000000e+00 0.000000e+00
1
Step 612000
Ar 1.087405e+00 0.000000e+00 0.000000e+00
1
Step 613000
Ar 1.057497e+00 0.000000e+00 0.000000e+00
1
Step 614000
Ar 9.071554e-01 0.000000e+00 0.000000e+00
1
Step 615000
Ar 1.135858e+00 0.000000e+00 0.000000e+00
1
Step 616000
Ar 1.037172e+00 0.000000e+00 0.000000e+00
1
Step 617000
Ar 9.175873e-01 0.000000e+00 0.000000e+00
1
Step 618000
Ar 9.579840e-01 0.000000e+00 0.000000e+00
1
Step 619000
Ar 8.656937e-01 0.000000e+00 0.000000e+00
1
Step 620000
Ar 8.301121e-01 0.000000e+00 0.000000e+00
1
Step 621000
Ar 9.988897e-01 0.000000e+00 0.000000e+00
1
Step 622000
Ar 8.969535e-01 0.000000e+00 0.000000e+00
1
Step 623000
Ar 1.004275e+00 0.000000e+00 0.000000e+00
1
Step 624000
Ar 9.423264e-01 0.000000e+00 0.000000e+00
1
Step 625000
Ar 1.042032e+00 0.000000e+00 0.000000e+00
1
Step 626000
Ar 9.383318e-01 0.000000e+00 0.000000e+00
1
Step 627000
Ar 9.649631e-01 0.000000e+00 0.000000e+00
1
Step 628000
Ar 9.069373e-01 0.000000e+00 0.000000e+00
1
Step 629000
Ar 1.003756e+00 0.000000e+00 0.000000e+00
1
Step 630000
Ar 7.976346e-01 0.000000e+00 0.000000e+00
1
Step 631000
Ar 9.100809e-01 0.000000e+00 0.000000e+00
1
Step 632000
Ar 1.059820e+00 0.000000e+00 0.000000e+00
1
Step 633000
Ar 1.019291e+00 0.000000e+00 0.000000e+00
1
Step 634000
Ar 1.080000e+00 0.000000e+00 0.000000e+00
1
Step 635000
Ar 1.130634e+00 0.000000e+00 0.000000e+00
1
Step 636000
Ar 1.046663e+00 0.000000e+00 0.000000e+00
1
Step 637000
Ar 8.598580e-01 0.000000e+00 0.000000e+00
1
Step 638000
Ar 9.177481e-01 0.000000e+00 0.000000e+00
1
Step 639000
Ar 8.378380e-01 0.000000e+00 0.000000e+00
1
Step 640000
Ar 8.984043e-01 0.000000e+00 0.000000e+00
1
Step 641000
Ar 1.076701e+00 0.000000e+00 0.000000e+00
1
Step 642000
Ar 9.944013e-01 0.000000e+00 0.000000e+00
1
Step 643000
Ar 8.448588e-01 0.000000e+00 0.000000e+00
1
Step 644000
Ar 9.561210e-01 0.000000e+00 0.000000e+00
1
Step 645000
Ar 8.928487e-01 0.000000e+00 0.000000e+00
1
Step 646000
Ar 9.325456e-01 0.000000e+00 0.000000e+00
1
Step 647000
Ar 8.282877e-01 0.000000e+00 0.000000e+00
1
Step 648000
Ar 8.572761e-01 0.000000e+00 0.000000e+00
1
Step 649000
Ar 8.234277e-01 0.000000e+00 0.000000e+00
1
Step 650000
Ar 9.537744e-01 0.000000e+00 0.000000e+00
1
Step 651000
Ar 9.065800e-01 0.000000e+00 0.000000e+00
1
Step 652000
Ar 1.082718e+00 0.000000e+00 0.000000e+00
1
Step 653000
Ar 8.854729e-01 0.000000e+00 0.000000e+00
1
Step 654000
Ar 7.706327e-01 0.000000e+00 0.000000e+00
1
Step 655000
Ar 8.447407e-01 0.000000e+00 0.000000e+00
1
Step 656000
Ar 9.162679e-01 0.000000e+00 0.000000e+00
1
Step 657000
Ar 8.789702e-01 0.000000e+00 0.000000e+00
1
Step 658000
Ar 7.882287e-01 0.000000e+00 0.000000e+00
1
Step 659000
Ar 9.146919e-01 0.000000e+00 0.000000e+00
1
Step 660000
Ar 1.012509e+00 0.000000e+00 0.000000e+00
1
Step 661000
Ar 9.260048e-01 0.000000e+00 0.000000e+00
1
Step 662000
Ar 1.053980e+00 0.000000e+00 0.000000e+00
1
Step 663000
Ar 1.097523e+00 0.000000e+00 0.000000e+00
1
Step 664000
Ar 9.466149e-01 0.000000e+00 0.000000e+00
1
Step 665000
Ar 8.676361e-01 0.000000e+00 0.000000e+00
1
Step 666000
Ar 1.073445e+00 0.000000e+00 0.000000e+00
1
Step 667000
Ar 9.033358e-01 0.000000e+00 0.000000e+00
1
Step 668000
Ar 1.033164e+00 0.000000e+00 0.000000e+00
1
Step 669000
Ar 7.443980e-01 0.000000e+00 0.000000e+00
1
Step 670000
Ar 8.358000e-01 0.000000e+00 0.000000e+00
1
Step 671000
Ar 1.009897e+00 0.000000e+00 0.000000e+00
1
Step 672000
Ar 1.032945e+00 0.000000e+00 0.000000e+00
1
Step 673000
Ar 7.627139e-01 0.000000e+00 0.000000e+00
1
Step 674000
Ar 9.946767e-01 0.000000e+00 0.000000e+00
1
Step 675000
Ar 1.024809e+00 0.000000e+00 0.000000e+00
1
Step 676000
Ar 1.093593e+00 0.000000e+00 0.000000e+00
1
Step 677000
Ar 9.933691e-01 0.000000e+00 0.000000e+00
1
Step 678000
Ar 9.870459e-01 0.000000e+00 0.000000e+00
1
Step 679000
Ar 9.643342e-01 0.000000e+00 0.000000e+00
1
Step 680000
Ar 9.940759e-01 0.000000e+00 0.000000e+00
1
Step 681000
Ar 1.017132e+00 0.000000e+00 0.000000e+00
1
Step 682000
Ar 8.626496e-01 0.000000e+00 0.000000e+00
1
Step 683000
Ar 8.413516e-01 0.000000e+00 0.000000e+00
1
Step 684000
Ar 9.664352e-01 0.000000e+00 0.000000e+00
1
Step 685000
Ar 8.914370e-01 0.000000e+00 0.000000e+00
1
Step 686000
Ar 9.311994e-01 0.000000e+00 0.000000e+00
1
Step 687000
Ar 9.530953e-01 0.000000e+00 0.000000e+00
1
Step 688000
Ar 9.001480e-01 0.000000e+00 0.000000e+00
1
Step 689000
Ar 1.025927e+00 0.000000e+00 0.000000e+00
1
Step 690000
Ar 4.121276e-01 0.000000e+00 0.000000e+00
1
Step 691000
Ar 1.022847e+00 0.000000e+00 0.000000e+00
1
Step 692000
Ar 9.617726e-01 0.000000e+00 0.000000e+00
1
Step 693000
Ar 1.030811e+00 0.000000e+00 0.000000e+00
1
Step 694000
Ar 9.782267e-01 0.000000e+00 0.000000e+00
1
Step 695000
Ar 1.064439e+00 0.000000e+00 0.000000e+00
1
Step 696000
Ar 1.020403e+00 0.000000e+00 0.000000e+00
1
Step 697000
Ar 1.051527e+00 0.000000e+00 0.000000e+00
1
Step 698000
Ar 1.044555e+00 0.000000e+00 0.000000e+00
1
Step 699000
Ar 9.396015e-01 0.000000e+00 0.000000e+00
1
Step 700000
Ar 9.352411e-01 0.000000e+00 0.000000e+00
1
Step 701000
Ar 9.320592e-01 0.000000e+00 0.000000e+00
1
Step 702000
Ar 8.527464e-01 0.000000e+00 0.000000e+00
1
Step 703000
Ar 9.594954e-01 0.000000e+00 0.000000e+00
1
Step 704000
Ar 1.015425e+00 0.000000e+00 0.000000e+00
1
Step 705000
Ar 1.057426e+00 0.000000e+00 0.000000e+00
1
Step 706000
Ar 9.629770e-01 0.000000e+00 0.000000e+00
1
Step 707000
Ar 7.848071e-01 0.000000e+00 0.000000e+00
1
Step 708000
Ar 7.722698e-01 0.000000e+00 0.000000e+00
1
Step 709000
Ar 6.867716e-01 0.000000e+00 0.000000e+00
1
Step 710000
Ar 1.004642e+00 0.000000e+00 0.000000e+00
1
Step 711000
Ar 1.018632e+00 0.000000e+00 0.000000e+00
1
Step 712000
Ar 8.429214e-01 0.000000e+00 0.000000e+00
1
Step 713000
Ar 1.039576e+00 0.000000e+00 0.000000e+00
1
Step 714000
Ar 1.029106e+00 0.000000e+00 0.000000e+00
1
Step 715000
Ar 1.043417e+00 0.000000e+00 0.000000e+00
1
Step 716000
Ar 1.112113e+00 0.000000e+00 0.000000e+00
1
Step 717000
Ar 1.000471e+00 0.000000e+00 0.000000e+00
1
Step 718000
Ar 8.926196e-01 0.000000e+00 0.000000e+00
1
Step 719000
Ar 1.021477e+00 0.000000e+00 0.000000e+00
1
Step 720000
Ar 8.912271e-01 0.000000e+00 0.000000e+00
1
Step 721000
Ar 9.979042e-01 0.000000e+00 0.000000e+00
1
Step 722000
Ar 9.035479e-01 0.000000e+00 0.000000e+00
1
Step 723000
Ar 9.946996e-01 0.000000e+00 0.000000e+00
1
Step 724000
Ar 9.899813e-01 0.000000e+00 0.000000e+00
1
Step 725000
Ar 9.018438e-01 0.000000e+00 0.000000e+00
1
Step 726000
Ar 9.313966e-01 0.000000e+00 0.000000e+00
1
Step 727000
Ar 1.035070e+00 0.000000e+00 0.000000e+00
1
Step 728000
Ar 1.031330e+00 0.000000e+00 0.000000e+00
1
Step 729000
Ar 9.109100e-01 0.000000e+00 0.000000e+00
1
Step 730000
Ar 8.969569e-01 0.000000e+00 0.000000e+00
1
Step 731000
Ar 1.028768e+00 0.000000e+00 0.000000e+00
1
Step 732000
Ar 1.012319e+00 0.000000e+00 0.000000e+00
1
Step 733000
Ar 9.714587e-01 0.000000e+00 0.000000e+00
1
Step 734000
Ar 1.081047e+00 0.000000e+00 0.000000e+00
1
Step 735000
Ar 1.052424e+00 0.000000e+00 0.000000e+00
1
Step 736000
Ar 6.819672e-01 0.000000e+00 0.000000e+00
1
Step 737000
Ar 8.456849e-01 0.000000e+00 0.000000e+00
1
Step 738000
Ar 9.356967e-01 0.000000e+00 0.000000e+00
1
Step 739000
Ar 9.924300e-01 0.000000e+00 0.000000e+00
1
Step 740000
Ar 9.256998e-01 0.000000e+00 0.000000e+00
1
Step 741000
Ar 8.186959e-01 0.000000e+00 0.000000e+00
1
Step 742000
Ar 1.064810e+00 0.000000e+00 0.000000e+00
1
Step 743000
Ar 1.085277e+00 0.000000e+00 0.000000e+00
1
Step 744000
Ar 9.651201e-01 0.000000e+00 0.000000e+00
1
Step 745000
Ar 9.066221e-01 0.000000e+00 0.000000e+00
1
Step 746000
Ar 9.451749e-01 0.000000e+00 0.000000e+00
1
Step 747000
Ar 7.587612e-01 0.000000e+00 0.000000e+00
1
Step 748000
Ar 1.093498e+00 0.000000e+00 0.000000e+00
1
Step 749000
Ar 1.118771e+00 0.000000e+00 0.000000e+00
1
Step 750000
Ar 9.779783e-01 0.000000e+00 0.000000e+00
1
Step 751000
Ar 8.206092e-01 0.000000e+00 0.000000e+00
1
Step 752000
Ar 9.239133e-01 0.000000e+00 0.000000e+00
1
Step 753000
Ar 1.098595e+00 0.000000e+00 0.000000e+00
1
Step 754000
Ar 1.015345e+00 0.000000e+00 0.000000e+00
1
Step 755000
Ar 1.031352e+00 0.000000e+00 0.000000e+00
1
Step 756000
Ar 9.052418e-01 0.000000e+00 0.000000e+00
1
Step 757000
Ar 1.064712e+00 0.000000e+00 0.000000e+00
1
Step 758000
Ar 9.756849e-01 0.000000e+00 0.000000e+00
1
Step 759000
Ar 7.914461e-01 0.000000e+00 0.000000e+00
1
Step 760000
Ar 6.792468e-01 0.000000e+00 0.000000e+00
1
Step 761000
Ar 1.029406e+00 0.000000e+00 0.000000e+00
1
Step 762000
Ar 1.026836e+00 0.000000e+00 0.000000e+00
1
Step 763000
Ar 1.082661e+00 0.000000e+00 0.000000e+00
1
Step 764000
Ar 1.097770e+00 0.000000e+00 0.000000e+00
1
Step 765000
Ar 1.036347e+00 0.000000e+00 0.000000e+00
1
Step 766000
Ar 9.337229e-01 0.000000e+00 0.000000e+00
1
Step 767000
Ar 1.032777e+00 0.000000e+00 0.000000e+00
1
Step 768000
Ar 1.100662e+00 0.000000e+00 0.000000e+00
1
Step 769000
Ar 9.212918e-01 0.000000e+00 0.000000e+00
1
Step 770000
Ar 1.106377e+00 0.000000e+00 0.000000e+00
1
Step 771000
Ar 9.989086e-01 0.000000e+00 0.000000e+00
1
Step 772000
Ar 9.640988e-01 0.000000e+00 0.000000e+00
1
Step 773000
Ar 9.915198e-01 0.000000e+00 0.000000e+00
1
Step 774000
Ar 9.229286e-01 0.000000e+00 0.000000e+00
1
Step 775000
Ar 9.487992e-01 0.000000e+00 0.000000e+00
1
Step 776000
Ar 1.047157e+00 0.000000e+00 0.000000e+00
1
Step 777000
Ar 9.560681e-01 0.000000e+00 0.000000e+00
1
Step 778000
Ar 1.057606e+00 0.000000e+00 0.000000e+00
1
Step 779000
Ar 1.029332e+00 0.000000e+00 0.000000e+00
1
Step 780000
Ar 1.029142e+00 0.000000e+00 0.000000e+00
1
Step 781000
Ar 1.016038e+00 0.000000e+00 0.000000e+00
1
Step 782000
Ar 1.045865e+00 0.000000e+00 0.000000e+00
1
Step 783000
Ar 1.004926e+00 0.000000e+00 0.000000e+00
1
Step 784000
Ar 9.799155e-01 0.000000e+00 0.000000e+00
1
Step 785000
Ar 8.974721e-01 0.000000e+00 0.000000e+00
1
Step 786000
Ar 7.304344e-01 0.000000e+00 0.000000e+00
1
Step 787000
Ar 8.634500e-01 0.000000e+00 0.000000e+00
1
Step 788000
Ar 1.026175e+00 0.000000e+00 0.000000e+00
1
Step 789000
Ar 1.006445e+00 0.000000e+00 0.000000e+00
1
Step 790000
Ar 9.639012e-01 0.000000e+00 0.000000e+00
1
Step 791000
Ar 1.072407e+00 0.000000e+00 0.000000e+00
1
Step 792000
Ar 9.850827e-01 0.000000e+00 0.000000e+00
1
Step 793000
Ar 5.606273e-01 0.000000e+00 0.000000e+00
1
Step 794000
Ar 9.978892e-01 0.000000e+00 0.000000e+00
1
Step 795000
Ar 9.883822e-01 0.000000e+00 0.000000e+00
1
Step 796000
Ar 1.055130e+00 0.000000e+00 0.000000e+00
1
Step 797000
Ar 1.077546e+00 0.000000e+00 0.000000e+00
1
Step 798000
Ar 9.095757e-01 0.000000e+00 0.000000e+00
1
Step 799000
Ar 8.998196e-01 0.000000e+00 0.000000e+00
1
Step 800000
Ar 6.222091e-01 0.000000e+00 0.000000e+00
1
Step 801000
Ar 1.064712e+00 0.000000e+00 0.000000e+00
1
Step 802000
Ar 1.029410e+00 0.000000e+00 0.000000e+00
1
Step 803000
Ar 1.080647e+00 0.000000e+00 0.000000e+00
1
Step 804000
Ar 9.902476e-01 0.000000e+00 0.000000e+00
1
Step 805000
Ar 9.510574e-01 0.000000e+00 0.000000e+00
1
Step 806000
Ar 1.134903e+00 0.000000e+00 0.000000e+00
1
Step 807000
Ar 8.203883e-01 0.000000e+00 0.000000e+00
1
Step 808000
Ar 8.019164e-01 0.000000e+00 0.000000e+00
1
Step 809000
Ar 1.107716e+00 0.000000e+00 0.000000e+00
1
Step 810000
Ar 9.974798e-01 0.000000e+00 0.000000e+00
1
Step 811000
Ar 9.331746e-01 0.000000e+00 0.000000e+00
1
Step 812000
Ar 9.381153e-01 0.000000e+00 0.000000e+00
1
Step 813000
Ar 8.746749e-01 0.000000e+00 0.000000e+00
1
Step 814000
Ar 9.462512e-01 0.000000e+00 0.000000e+00
1
Step 815000
Ar 8.059575e-01 0.000000e+00 0.000000e+00
1
Step 816000
Ar 8.302034e-01 0.000000e+00 0.000000e+00
1
Step 817000
Ar 8.076296e-01 0.000000e+00 0.000000e+00
1
Step 818000
Ar 1.054710e+00 0.000000e+00 0.000000e+00
1
Step 819000
Ar 9.020450e-01 0.000000e+00 0.000000e+00
1
Step 820000
Ar 9.410191e-01 0.000000e+00 0.000000e+00
1
Step 821000
Ar 9.383363e-01 0.000000e+00 0.000000e+00
1
Step 822000
Ar 8.976591e-01 0.000000e+00 0.000000e+00
1
Step 823000
Ar 9.556832e-01 0.000000e+00 0.000000e+00
1
Step 824000
Ar 8.690922e-01 0.000000e+00 0.000000e+00
1
Step 825000
Ar 1.112165e+00 0.000000e+00 0.000000e+00
1
Step 826000
Ar 9.076494e-01 0.000000e+00 0.000000e+00
1
Step 827000
Ar 9.344228e-01 0.000000e+00 0.000000e+00
1
Step 828000
Ar 8.161900e-01 0.000000e+00 0.000000e+00
1
Step 829000
Ar 1.033985e+00 0.000000e+00 0.000000e+00
1
Step 830000
Ar 7.917183e-01 0.000000e+00 0.000000e+00
1
Step 831000
Ar 1.072796e+00 0.000000e+00 0.000000e+00
1
Step 832000
Ar 9.521226e-01 0.000000e+00 0.000000e+00
1
Step 833000
Ar 1.064850e+00 0.000000e+00 0.000000e+00
1
Step 834000
Ar 9.457165e-01 0.000000e+00 0.000000e+00
1
Step 835000
Ar 9.528975e-01 0.000000e+00 0.000000e+00
1
Step 836000
Ar 1.070747e+00 0.000000e+00 0.000000e+00
1
Step 837000
Ar 9.843527e-01 0.000000e+00 0.000000e+00
1
Step 838000
Ar 1.013423e+00 0.000000e+00 0.000000e+00
1
Step 839000
Ar 9.821752e-01 0.000000e+00 0.000000e+00
1
Step 840000
Ar 8.122900e-01 0.000000e+00 0.000000e+00
1
Step 841000
Ar 7.291309e-01 0.000000e+00 0.000000e+00
1
Step 842000
Ar 1.022792e+00 0.000000e+00 0.000000e+00
1
Step 843000
Ar 9.278538e-01 0.000000e+00 0.000000e+00
1
Step 844000
Ar 1.064592e+00 0.000000e+00 0.000000e+00
1
Step 845000
Ar 9.445660e-01 0.000000e+00 0.000000e+00
1
Step 846000
Ar 9.096621e-01 0.000000e+00 0.000000e+00
1
Step 847000
Ar 9.559777e-01 0.000000e+00 0.000000e+00
1
Step 848000
Ar 1.055074e+00 0.000000e+00 0.000000e+00
1
Step 849000
Ar 8.547981e-01 0.000000e+00 0.000000e+00
1
Step 850000
Ar 1.081663e+00 0.000000e+00 0.000000e+00
1
Step 851000
Ar 8.806263e-01 0.000000e+00 0.000000e+00
1
Step 852000
Ar 1.085916e+00 0.000000e+00 0.000000e+00
1
Step 853000
Ar 1.023413e+00 0.000000e+00 0.000000e+00
1
Step 854000
Ar 8.899132e-01 0.000000e+00 0.000000e+00
1
Step 855000
Ar 9.443380e-01 0.000000e+00 0.000000e+00
1
Step 856000
Ar 1.021280e+00 0.000000e+00 0.000000e+00
1
Step 857000
Ar 1.130291e+00 0.000000e+00 0.000000e+00
1
Step 858000
Ar 1.033100e+00 0.000000e+00 0.000000e+00
1
Step 859000
Ar 1.019424e+00 0.000000e+00 0.000000e+00
1
Step 860000
Ar 1.030215e+00 0.000000e+00 0.000000e+00
1
Step 861000
Ar 7.637146e-01 0.000000e+00 0.000000e+00
1
Step 862000
Ar 7.868719e-01 0.000000e+00 0.000000e+00
1
Step 863000
Ar 1.094934e+00 0.000000e+00 0.000000e+00
1
Step 864000
Ar 1.016280e+00 0.000000e+00 0.000000e+00
1
Step 865000
Ar 1.063498e+00 0.000000e+00 0.000000e+00
1
Step 866000
Ar 1.066020e+00 0.000000e+00 0.000000e+00
1
Step 867000
Ar 1.035276e+00 0.000000e+00 0.000000e+00
1
Step 868000
Ar 8.482233e-01 0.000000e+00 0.000000e+00
1
Step 869000
Ar 8.140272e-01 0.000000e+00 0.000000e+00
1
Step 870000
Ar 1.004396e+00 0.000000e+00 0.000000e+00
1
Step 871000
Ar 9.741970e-01 0.000000e+00 0.000000e+00
1
Step 872000
Ar 8.838221e-01 0.000000e+00 0.000000e+00
1
Step 873000
Ar 1.071261e+00 0.000000e+00 0.000000e+00
1
Step 874000
Ar 8.022587e-01 0.000000e+00 0.000000e+00
1
Step 875000
Ar 1.018311e+00 0.000000e+00 0.000000e+00
1
Step 876000
Ar 8.366467e-01 0.000000e+00 0.000000e+00
1
Step 877000
Ar 9.561819e-01 0.000000e+00 0.000000e+00
1
Step 878000
Ar 9.227130e-01 0.000000e+00 0.000000e+00
1
Step 879000
Ar 9.644823e-01 0.000000e+00 0.000000e+00
1
Step 880000
Ar 1.054985e+00 0.000000e+00 0.000000e+00
1
Step 881000
Ar 1.084409e+00 0.000000e+00 0.000000e+00
1
Step 882000
Ar 9.399575e-01 0.000000e+00 0.000000e+00
1
Step 883000
Ar 6.832663e-01 0.000000e+00 0.000000e+00
1
Step 884000
Ar 1.001972e+00 0.000000e+00 0.000000e+00
1
Step 885000
Ar 8.977581e-01 0.000000e+00 0.000000e+00
1
Step 886000
Ar 8.528232e-01 0.000000e+00 0.000000e+00
1
Step 887000
Ar 8.683429e-01 0.000000e+00 0.000000e+00
1
Step 888000
Ar 9.997974e-01 0.000000e+00 0.000000e+00
1
Step 889000
Ar 9.465559e-01 0.000000e+00 0.000000e+00
1
Step 890000
Ar 9.296478e-01 0.000000e+00 0.000000e+00
1
Step 891000
Ar 9.106724e-01 0.000000e+00 0.000000e+00
1
Step 892000
Ar 1.129220e+00 0.000000e+00 0.000000e+00
1
Step 893000
Ar 9.456021e-01 0.000000e+00 0.000000e+00
1
Step 894000
Ar 8.252280e-01 0.000000e+00 0.000000e+00
1
Step 895000
Ar 9.884218e-01 0.000000e+00 0.000000e+00
1
Step 896000
Ar 1.101164e+00 0.000000e+00 0.000000e+00
1
Step 897000
Ar 9.353003e-01 0.000000e+00 0.000000e+00
1
Step 898000
Ar 9.426697e-01 0.000000e+00 0.000000e+00
1
Step 899000
Ar 9.772016e-01 0.000000e+00 0.000000e+00
1
Step 900000
Ar 8.816150e-01 0.000000e+00 0.000000e+00
1
Step 901000
Ar 1.033588e+00 0.000000e+00 0.000000e+00
1
Step 902000
Ar 1.028035e+00 0.000000e+00 0.000000e+00
1
Step 903000
Ar 7.284933e-01 0.000000e+00 0.000000e+00
1
Step 904000
Ar 1.007719e+00 0.000000e+00 0.000000e+00
1
Step 905000
Ar 1.092661e+00 0.000000e+00 0.000000e+00
1
Step 906000
Ar 9.811697e-01 0.000000e+00 0.000000e+00
1
Step 907000
Ar 9.622292e-01 0.000000e+00 0.000000e+00
1
Step 908000
Ar 1.122884e+00 0.000000e+00 0.000000e+00
1
Step 909000
Ar 1.034990e+00 0.000000e+00 0.000000e+00
1
Step 910000
Ar 8.235259e-01 0.000000e+00 0.000000e+00
1
Step 911000
Ar 1.020357e+00 0.000000e+00 0.000000e+00
1
Step 912000
Ar 8.886428e-01 0.000000e+00 0.000000e+00
1
Step 913000
Ar 1.020058e+00 0.000000e+00 0.000000e+00
1
Step 914000
Ar 8.368020e-01 0.000000e+00 0.000000e+00
1
Step 915000
Ar 8.290462e-01 0.000000e+00 0.000000e+00
1
Step 916000
Ar 9.630651e-01 0.000000e+00 0.000000e+00
1
Step 917000
Ar 1.072341e+00 0.000000e+00 0.000000e+00
1
Step 918000
Ar 7.585783e-01 0.000000e+00 0.000000e+00
1
Step 919000
Ar 1.011240e+00 0.000000e+00 0.000000e+00
1
Step 920000
Ar 1.015804e+00 0.000000e+00 0.000000e+00
1
Step 921000
Ar 1.098981e+00 0.000000e+00 0.000000e+00
1
Step 922000
Ar 8.985004e-01 0.000000e+00 0.000000e+00
1
Step 923000
Ar 9.987429e-01 0.000000e+00 0.000000e+00
1
Step 924000
Ar 9.233410e-01 0.000000e+00 0.000000e+00
1
Step 925000
Ar 1.125626e+00 0.000000e+00 0.000000e+00
1
Step 926000
Ar 9.962459e-01 0.000000e+00 0.000000e+00
1
Step 927000
Ar 1.036430e+00 0.000000e+00 0.000000e+00
1
Step 928000
Ar 1.124775e+00 0.000000e+00 0.000000e+00
1
Step 929000
Ar 1.065496e+00 0.000000e+00 0.000000e+00
1
Step 930000
Ar 9.824283e-01 0.000000e+00 0.000000e+00
1
Step 931000
Ar 9.804940e-01 0.000000e+00 0.000000e+00
1
Step 932000
Ar 9.275938e-01 0.000000e+00 0.000000e+00
1
Step 933000
Ar 1.058149e+00 0.000000e+00 0.000000e+00
1
Step 934000
Ar 9.286237e-01 0.000000e+00 0.000000e+00
1
Step 935000
Ar 9.293335e-01 0.000000e+00 0.000000e+00
1
Step 936000
Ar 1.068072e+00 0.000000e+00 0.000000e+00
1
Step 937000
Ar 1.088274e+00 0.000000e+00 0.000000e+00
1
Step 938000
Ar 1.063740e+00 0.000000e+00 0.000000e+00
1
Step 939000
Ar 9.906299e-01 0.000000e+00 0.000000e+00
1
Step 940000
Ar 1.114680e+00 0.000000e+00 0.000000e+00
1
Step 941000
Ar 9.146171e-01 0.000000e+00 0.000000e+00
1
Step 942000
Ar 1.064778e+00 0.000000e+00 0.000000e+00
1
Step 943000
Ar 9.562149e-01 0.000000e+00 0.000000e+00
1
Step 944000
Ar 9.744494e-01 0.000000e+00 0.000000e+00
1
Step 945000
Ar 1.052456e+00 0.000000e+00 0.000000e+00
1
Step 946000
Ar 8.781957e-01 0.000000e+00 0.000000e+00
1
Step 947000
Ar 1.000475e+00 0.000000e+00 0.000000e+00
1
Step 948000
Ar 9.724506e-01 0.000000e+00 0.000000e+00
1
Step 949000
Ar 8.767589e-01 0.000000e+00 0.000000e+00
1
Step 950000
Ar 1.002552e+00 0.000000e+00 0.000000e+00
1
Step 951000
Ar 1.091922e+00 0.000000e+00 0.000000e+00
1
Step 952000
Ar 9.984201e-01 0.000000e+00 0.000000e+00
1
Step 953000
Ar 1.024701e+00 0.000000e+00 0.000000e+00
1
Step 954000
Ar 9.583230e-01 0.000000e+00 0.000000e+00
1
Step 955000
Ar 9.852003e-01 0.000000e+00 0.000000e+00
1
Step 956000
Ar 9.885107e-01 0.000000e+00 0.000000e+00
1
Step 957000
Ar 1.086557e+00 0.000000e+00 0.000000e+00
1
Step 958000
Ar 1.074306e+00 0.000000e+00 0.000000e+00
1
Step 959000
Ar 9.654224e-01 0.000000e+00 0.000000e+00
1
Step 960000
Ar 8.915028e-01 0.000000e+00 0.000000e+00
1
Step 961000
Ar 8.715064e-01 0.000000e+00 0.000000e+00
1
Step 962000
Ar 7.680694e-01 0.000000e+00 0.000000e+00
1
Step 963000
Ar 1.003934e+00 0.000000e+00 0.000000e+00
1
Step 964000
Ar 1.083861e+00 0.000000e+00 0.000000e+00
1
Step 965000
Ar 9.695434e-01 0.000000e+00 0.000000e+00
1
Step 966000
Ar 1.102654e+00 0.000000e+00 0.000000e+00
1
Step 967000
Ar 1.117107e+00 0.000000e+00 0.000000e+00
1
Step 968000
Ar 9.994183e-01 0.000000e+00 0.000000e+00
1
Step 969000
Ar 1.004369e+00 0.000000e+00 0.000000e+00
1
Step 970000
Ar 9.573347e-01 0.000000e+00 0.000000e+00
1
Step 971000
Ar 9.909267e-01 0.000000e+00 0.000000e+00
1
Step 972000
Ar 1.133960e+00 0.000000e+00 0.000000e+00
1
Step 973000
Ar 9.361213e-01 0.000000e+00 0.000000e+00
1
Step 974000
Ar 9.325746e-01 0.000000e+00 0.000000e+00
1
Step 975000
Ar 8.087767e-01 0.000000e+00 0.000000e+00
1
Step 976000
Ar 9.808216e-01 0.000000e+00 0.000000e+00
1
Step 977000
Ar 9.571841e-01 0.000000e+00 0.000000e+00
1
Step 978000
Ar 1.090841e+00 0.000000e+00 0.000000e+00
1
Step 979000
Ar 1.008547e+00 0.000000e+00 0.000000e+00
1
Step 980000
Ar 9.020764e-01 0.000000e+00 0.000000e+00
1
Step 981000
Ar 8.709163e-01 0.000000e+00 0.000000e+00
1
Step 982000
Ar 9.799549e-01 0.000000e+00 0.000000e+00
1
Step 983000
Ar 1.138815e+00 0.000000e+00 0.000000e+00
1
Step 984000
Ar 1.015160e+00 0.000000e+00 0.000000e+00
1
Step 985000
Ar 8.952962e-01 0.000000e+00 0.000000e+00
1
Step 986000
Ar 1.068755e+00 0.000000e+00 0.000000e+00
1
Step 987000
Ar 9.037212e-01 0.000000e+00 0.000000e+00
1
Step 988000
Ar 1.105171e+00 0.000000e+00 0.000000e+00
1
Step 989000
Ar 8.890961e-01 0.000000e+00 0.000000e+00
1
Step 990000
Ar 1.133481e+00 0.000000e+00 0.000000e+00
1
Step 991000
Ar 9.960784e-01 0.000000e+00 0.000000e+00
1
Step 992000
Ar 9.809275e-01 0.000000e+00 0.000000e+00
1
Step 993000
Ar 9.734979e-01 0.000000e+00 0.000000e+00
1
Step 994000
Ar 1.067033e+00 0.000000e+00 0.000000e+00
1
Step 995000
Ar 9.447129e-01 0.000000e+00 0.000000e+00
1
Step 996000
Ar 8.630837e-01 0.000000e+00 0.000000e+00
1
Step 997000
Ar 1.081835e+00 0.000000e+00 0.000000e+00
1
Step 998000
Ar 9.976748e-01 0.000000e+00 0.000000e+00
1
Step 999000
Ar 1.078087e+00 0.000000e+00 0.000000e+00
