1
Step 120000
Ar 7.830130e-01 0.000000e+00 0.000000e+00
1
Step 121000
Ar 9.657010e-01 0.000000e+00 0.000000e+00
1
Step 122000
Ar 9.920914e-01 0.000000e+00 0.000000e+00
1
Step 123000
Ar 8.563782e-01 0.000000e+00 0.000000e+00
1
Step 124000
Ar 9.875973e-01 0.000000e+00 0.000000e+00
1
Step 125000
Ar 1.144358e+00 0.000000e+00 0.000000e+00
1
Step 126000
Ar 9.469497e-01 0.000000e+00 0.000000e+00
1
Step 127000
Ar 9.578084e-01 0.000000e+00 0.000000e+00
1
Step 128000
Ar 8.962559e-01 0.000000e+00 0.000000e+00
1
Step 129000
Ar 1.107725e+00 0.000000e+00 0.000000e+00
1
Step 130000
Ar 7.426353e-01 0.000000e+00 0.000000e+00
1
Step 131000
Ar 8.131483e-01 0.000000e+00 0.000000e+00
1
Step 132000
Ar 8.299844e-01 0.000000e+00 0.000000e+00
1
Step 133000
Ar 1.074937e+00 0.000000e+00 0.000000e+00
1
Step 134000
Ar 9.614581e-01 0.000000e+00 0.000000e+00
1
Step 135000
Ar 9.516554e-01 0.000000e+00 0.000000e+00
1
Step 136000
Ar 1.056054e+00 0.000000e+00 0.000000e+00
1
Step 137000
Ar 9.596143e-01 0.000000e+00 0.000000e+00
1
Step 138000
Ar 8.074484e-01 0.000000e+00 0.000000e+00
1
Step 139000
Ar 9.063350e-01 0.000000e+00 0.000000e+00
1
Step 140000
Ar 6.685363e-01 0.000000e+00 0.000000e+00
1
Step 141000
Ar 1.085020e+00 0.000000e+00 0.000000e+00
1
Step 142000
Ar 1.064898e+00 0.000000e+00 0.000000e+00
1
Step 143000
Ar 8.588179e-01 0.000000e+00 0.000000e+00
1
Step 144000
Ar 1.027733e+00 0.000000e+00 0.000000e+00
1
Step 145000
Ar 9.417689e-01 0.000000e+00 0.000000e+00
1
Step 146000
Ar 9.789163e-01 0.000000e+00 0.000000e+00
1
Step 147000
Ar 8.601063e-01 0.000000e+00 0.000000e+00
1
Step 148000
Ar 7.393534e-01 0.000000e+00 0.000000e+00
1
Step 149000
Ar 1.028224e+00 0.000000e+00 0.000000e+00
1
Step 150000
Ar 8.595277e-01 0.000000e+00 0.000000e+00
1
Step 151000
Ar 9.148839e-01 0.000000e+00 0.000000e+00
1
Step 152000
Ar 1.080782e+00 0.000000e+00 0.000000e+00
1
Step 153000
Ar 9.032701e-01 0.000000e+00 0.000000e+00
1
Step 154000
Ar 1.100200e+00 0.000000e+00 0.000000e+00
1
Step 155000
Ar 9.523459e-01 0.000000e+00 0.000000e+00
1
Step 156000
Ar 1.060639e+00 0.000000e+00 0.000000e+00
1
Step 157000
Ar 9.152502e-01 0.000000e+00 0.000000e+00
1
Step 158000
Ar 1.130742e+00 0.000000e+00 0.000000e+00
1
Step 159000
Ar 1.045300e+00 0.000000e+00 0.000000e+00
1
Step 160000
Ar 1.006886e+00 0.000000e+00 0.000000e+00
1
Step 161000
Ar 1.047805e+00 0.000000e+00 0.000000e+00
1
Step 162000
Ar 1.042790e+00 0.000000e+00 0.000000e+00
1
Step 163000
Ar 1.036351e+00 0.000000e+00 0.000000e+00
1
Step 164000
Ar 9.873042e-01 0.000000e+00 0.000000e+00
1
Step 165000
Ar 8.449398e-01 0.000000e+00 0.000000e+00
1
Step 166000
Ar 1.052170e+00 0.000000e+00 0.000000e+00
1
Step 167000
Ar 9.618833e-01 0.000000e+00 0.000000e+00
1
Step 168000
Ar 9.207837e-01 0.000000e+00 0.000000e+00
1
Step 169000
Ar 9.482392e-01 0.000000e+00 0.000000e+00
1
Step 170000
Ar 8.298699e-01 0.000000e+00 0.000000e+00
1
Step 171000
Ar 9.263322e-01 0.000000e+00 0.000000e+00
1
Step 172000
Ar 1.111932e+00 0.000000e+00 0.000000e+00
1
Step 173000
Ar 9.581505e-01 0.000000e+00 0.000000e+00
1
Step 174000
Ar 1.007265e+00 0.000000e+00 0.000000e+00
1
Step 175000
Ar 7.898644e-01 0.000000e+00 0.000000e+00
1
Step 176000
Ar 1.071163e+00 0.000000e+00 0.000000e+00
1
Step 177000
Ar 9.414807e-01 0.000000e+00 0.000000e+00
1
Step 178000
Ar 1.174465e+00 0.000000e+00 0.000000e+00
1
Step 179000
Ar 9.071522e-01 0.000000e+00 0.000000e+00
1
Step 180000
Ar 1.164025e+00 0.000000e+00 0.000000e+00
1
Step 181000
Ar 1.088300e+00 0.000000e+00 0.000000e+00
1
Step 182000
Ar 1.029981e+00 0.000000e+00 0.000000e+00
1
Step 183000
Ar 9.639087e-01 0.000000e+00 0.000000e+00
1
Step 184000
Ar 1.073599e+00 0.000000e+00 0.000000e+00
1
Step 185000
Ar 9.848775e-01 0.000000e+00 0.000000e+00
1
Step 186000
Ar 1.033159e+00 0.000000e+00 0.000000e+00
1
Step 187000
Ar 8.783906e-01 0.000000e+00 0.000000e+00
1
Step 188000
Ar 7.405905e-01 0.000000e+00 0.000000e+00
1
Step 189000
Ar 1.132952e+00 0.000000e+00 0.000000e+00
1
Step 190000
Ar 9.678339e-01 0.000000e+00 0.000000e+00
1
Step 191000
Ar 1.075263e+00 0.000000e+00 0.000000e+00
1
Step 192000
Ar 1.140045e+00 0.000000e+00 0.000000e+00
1
Step 193000
Ar 1.079586e+00 0.000000e+00 0.000000e+00
1
Step 194000
Ar 8.749444e-01 0.000000e+00 0.000000e+00
1
Step 195000
Ar 9.543025e-01 0.000000e+00 0.000000e+00
1
Step 196000
Ar 9.674653e-01 0.000000e+00 0.000000e+00
1
Step 197000
Ar 1.066034e+00 0.000000e+00 0.000000e+00
1
Step 198000
Ar 9.709922e-01 0.000000e+00 0.000000e+00
1
Step 199000
Ar 7.987887e-01 0.000000e+00 0.000000e+00
1
Step 200000
Ar 1.011133e+00 0.000000e+00 0.000000e+00
1
Step 201000
Ar 8.952162e-01 0.000000e+00 0.000000e+00
1
Step 202000
Ar 8.933195e-01 0.000000e+00 0.000000e+00
1
Step 203000
Ar 1.052065e+00 0.000000e+00 0.000000e+00
1
Step 204000
Ar 1.067572e+00 0.000000e+00 0.000000e+00
1
Step 205000
Ar 1.181596e+00 0.000000e+00 0.000000e+00
1
Step 206000
Ar 1.015348e+00 0.000000e+00 0.000000e+00
1
Step 207000
Ar 9.971324e-01 0.000000e+00 0.000000e+00
1
Step 208000
Ar 1.073468e+00 0.000000e+00 0.000000e+00
1
Step 209000
Ar 9.315544e-01 0.000000e+00 0.000000e+00
1
Step 210000
Ar 9.614183e-01 0.000000e+00 0.000000e+00
1
Step 211000
Ar 9.919484e-01 0.000000e+00 0.000000e+00
1
Step 212000
Ar 1.009541e+00 0.000000e+00 0.000000e+00
1
Step 213000
Ar 7.916020e-01 0.000000e+00 0.000000e+00
1
Step 214000
Ar 1.072269e+00 0.000000e+00 0.000000e+00
1
Step 215000
Ar 1.059029e+00 0.000000e+00 0.000000e+00
1
Step 216000
Ar 1.108830e+00 0.000000e+00 0.000000e+00
1
Step 217000
Ar 1.052560e+00 0.000000e+00 0.000000e+00
1
Step 218000
Ar 9.738407e-01 0.000000e+00 0.000000e+00
1
Step 219000
Ar 9.569622e-01 0.000000e+00 0.000000e+00
1
Step 220000
Ar 1.014356e+00 0.000000e+00 0.000000e+00
1
Step 221000
Ar 1.116580e+00 0.000000e+00 0.000000e+00
1
Step 222000
Ar 9.565207e-01 0.000000e+00 0.000000e+00
1
Step 223000
Ar 8.779608e-01 0.000000e+00 0.000000e+00
1
Step 224000
Ar 7.896658e-01 0.000000e+00 0.000000e+00
1
Step 225000
Ar 9.542356e-01 0.000000e+00 0.000000e+00
1
Step 226000
Ar 9.944548e-01 0.000000e+00 0.000000e+00
1
Step 227000
Ar 1.050670e+00 0.000000e+00 0.000000e+00
1
Step 228000
Ar 1.091180e+00 0.000000e+00 0.000000e+00
1
Step 229000
Ar 1.009043e+00 0.000000e+00 0.000000e+00
1
Step 230000
Ar 9.981988e-01 0.000000e+00 0.000000e+00
1
Step 231000
Ar 1.082654e+00 0.000000e+00 0.000000e+00
1
Step 232000
Ar 1.022238e+00 0.000000e+00 0.000000e+00
1
Step 233000
Ar 1.008459e+00 0.000000e+00 0.000000e+00
1
Step 234000
Ar 9.312064e-01 0.000000e+00 0.000000e+00
1
Step 235000
Ar 9.277750e-01 0.000000e+00 0.000000e+00
1
Step 236000
Ar 9.385985e-01 0.000000e+00 0.000000e+00
1
Step 237000
Ar 1.019509e+00 0.000000e+00 0.000000e+00
1
Step 238000
Ar 9.085114e-01 0.000000e+00 0.000000e+00
1
Step 239000
Ar 1.156372e+00 0.000000e+00 0.000000e+00
1
Step 240000
Ar 9.254085e-01 0.000000e+00 0.000000e+00
1
Step 241000
Ar 8.553281e-01 0.000000e+00 0.000000e+00
1
Step 242000
Ar 9.847567e-01 0.000000e+00 0.000000e+00
1
Step 243000
Ar 9.689013e-01 0.000000e+00 0.000000e+00
1
Step 244000
Ar 9.493264e-01 0.000000e+00 0.000000e+00
1
Step 245000
Ar 1.184091e+00 0.000000e+00 0.000000e+00
1
Step 246000
Ar 1.133424e+00 0.000000e+00 0.000000e+00
1
Step 247000
Ar 1.132722e+00 0.000000e+00 0.000000e+00
1
Step 248000
Ar 1.002718e+00 0.000000e+00 0.000000e+00
1
Step 249000
Ar 7.944495e-01 0.000000e+00 0.000000e+00
1
Step 250000
Ar 1.121403e+00 0.000000e+00 0.000000e+00
1
Step 251000
Ar 1.156146e+00 0.000000e+00 0.000000e+00
1
Step 252000
Ar 9.405235e-01 0.000000e+00 0.000000e+00
1
Step 253000
Ar 8.850630e-01 0.000000e+00 0.000000e+00
1
Step 254000
Ar 8.739064e-01 0.000000e+00 0.000000e+00
1
Step 255000
Ar 8.462597e-01 0.000000e+00 0.000000e+00
1
Step 256000
Ar 8.191723e-01 0.000000e+00 0.000000e+00
1
Step 257000
Ar 9.315798e-01 0.000000e+00 0.000000e+00
1
Step 258000
Ar 7.291416e-01 0.000000e+00 0.000000e+00
1
Step 259000
Ar 1.171412e+00 0.000000e+00 0.000000e+00
1
Step 260000
Ar 9.392635e-01 0.000000e+00 0.000000e+00
1
Step 261000
Ar 7.817459e-01 0.000000e+00 0.000000e+00
1
Step 262000
Ar 1.002680e+00 0.000000e+00 0.000000e+00
1
Step 263000
Ar 9.436951e-01 0.000000e+00 0.000000e+00
1
Step 264000
Ar 1.012543e+00 0.000000e+00 0.000000e+00
1
Step 265000
Ar 1.099666e+00 0.000000e+00 0.000000e+00
1
Step 266000
Ar 1.043949e+00 0.000000e+00 0.000000e+00
1
Step 267000
Ar 8.604240e-01 0.000000e+00 0.000000e+00
1
Step 268000
Ar 1.014879e+00 0.000000e+00 0.000000e+00
1
Step 269000
Ar 1.109005e+00 0.000000e+00 0.000000e+00
1
Step 270000
Ar 9.092423e-01 0.000000e+00 0.000000e+00
1
Step 271000
Ar 9.533089e-01 0.000000e+00 0.000000e+00
1
Step 272000
Ar 8.299368e-01 0.000000e+00 0.000000e+00
1
Step 273000
Ar 9.989065e-01 0.000000e+00 0.000000e+00
1
Step 274000
Ar 1.080666e+00 0.000000e+00 0.000000e+00
1
Step 275000
Ar 1.173458e+00 0.000000e+00 0.000000e+00
1
Step 276000
Ar 1.095517e+00 0.000000e+00 0.000000e+00
1
Step 277000
Ar 1.069722e+00 0.000000e+00 0.000000e+00
1
Step 278000
Ar 9.592908e-01 0.000000e+00 0.000000e+00
1
Step 279000
Ar 7.685002e-01 0.000000e+00 0.000000e+00
1
Step 280000
Ar 9.290348e-01 0.000000e+00 0.000000e+00
1
Step 281000
Ar 1.150103e+00 0.000000e+00 0.000000e+00
1
Step 282000
Ar 9.559782e-01 0.000000e+00 0.000000e+00
1
Step 283000
Ar 1.036041e+00 0.000000e+00 0.000000e+00
1
Step 284000
Ar 8.989807e-01 0.000000e+00 0.000000e+00
1
Step 285000
Ar 9.317554e-01 0.000000e+00 0.000000e+00
1
Step 286000
Ar 1.107651e+00 0.000000e+00 0.000000e+00
1
Step 287000
Ar 9.613409e-01 0.000000e+00 0.000000e+00
1
Step 288000
Ar 1.105945e+00 0.000000e+00 0.000000e+00
1
Step 289000
Ar 1.050745e+00 0.000000e+00 0.000000e+00
1
Step 290000
Ar 1.090179e+00 0.000000e+00 0.000000e+00
1
Step 291000
Ar 8.012785e-01 0.000000e+00 0.000000e+00
1
Step 292000
Ar 9.094566e-01 0.000000e+00 0.000000e+00
1
Step 293000
Ar 9.503830e-01 0.000000e+00 0.000000e+00
1
Step 294000
Ar 1.050812e+00 0.000000e+00 0.000000e+00
1
Step 295000
Ar 9.256808e-01 0.000000e+00 0.000000e+00
1
Step 296000
Ar 1.189888e+00 0.000000e+00 0.000000e+00
1
Step 297000
Ar 1.042955e+00 0.000000e+00 0.000000e+00
1
Step 298000
Ar 1.115684e+00 0.000000e+00 0.000000e+00
1
Step 299000
Ar 9.843805e-01 0.000000e+00 0.000000e+00
1
Step 300000
Ar 9.846862e-01 0.000000e+00 0.000000e+00
1
Step 301000
Ar 8.225351e-01 0.000000e+00 0.000000e+00
1
Step 302000
Ar 9.659147e-01 0.000000e+00 0.000000e+00
1
Step 303000
Ar 1.033665e+00 0.000000e+00 0.000000e+00
1
Step 304000
Ar 1.014459e+00 0.000000e+00 0.000000e+00
1
Step 305000
Ar 8.359840e-01 0.000000e+00 0.000000e+00
1
Step 306000
Ar 1.147257e+00 0.000000e+00 0.000000e+00
1
Step 307000
Ar 1.004864e+00 0.000000e+00 0.000000e+00
1
Step 308000
Ar 9.699799e-01 0.000000e+00 0.000000e+00
1
Step 309000
Ar 1.085615e+00 0.000000e+00 0.000000e+00
1
Step 310000
Ar 8.995602e-01 0.000000e+00 0.000000e+00
1
Step 311000
Ar 1.058493e+00 0.000000e+00 0.000000e+00
1
Step 312000
Ar 8.877671e-01 0.000000e+00 0.000000e+00
1
Step 313000
Ar 8.689718e-01 0.000000e+00 0.000000e+00
1
Step 314000
Ar 1.045899e+00 0.000000e+00 0.000000e+00
1
Step 315000
Ar 8.915504e-01 0.000000e+00 0.000000e+00
1
Step 316000
Ar 9.064204e-01 0.000000e+00 0.000000e+00
1
Step 317000
Ar 8.046098e-01 0.000000e+00 0.000000e+00
1
Step 318000
Ar 1.101163e+00 0.000000e+00 0.000000e+00
1
Step 319000
Ar 1.091342e+00 0.000000e+00 0.000000e+00
1
Step 320000
Ar 1.022155e+00 0.000000e+00 0.000000e+00
1
Step 321000
Ar 8.793530e-01 0.000000e+00 0.000000e+00
1
Step 322000
Ar 9.730490e-01 0.000000e+00 0.000000e+00
1
Step 323000
Ar 1.008994e+00 0.000000e+00 0.000000e+00
1
Step 324000
Ar 9.024994e-01 0.000000e+00 0.000000e+00
1
Step 325000
Ar 1.104964e+00 0.000000e+00 0.000000e+00
1
Step 326000
Ar 8.831564e-01 0.000000e+00 0.000000e+00
1
Step 327000
Ar 1.164498e+00 0.000000e+00 0.000000e+00
1
Step 328000
Ar 8.964673e-01 0.000000e+00 0.000000e+00
1
Step 329000
Ar 1.165975e+00 0.000000e+00 0.000000e+00
1
Step 330000
Ar 9.724671e-01 0.000000e+00 0.000000e+00
1
Step 331000
Ar 1.164103e+00 0.000000e+00 0.000000e+00
1
Step 332000
Ar 9.527149e-01 0.000000e+00 0.000000e+00
1
Step 333000
Ar 9.146657e-01 0.000000e+00 0.000000e+00
1
Step 334000
Ar 1.137226e+00 0.000000e+00 0.000000e+00
1
Step 335000
Ar 9.306745e-01 0.000000e+00 0.000000e+00
1
Step 336000
Ar 1.021405e+00 0.000000e+00 0.000000e+00
1
Step 337000
Ar 9.390299e-01 0.000000e+00 0.000000e+00
1
Step 338000
Ar 1.009341e+00 0.000000e+00 0.000000e+00
1
Step 339000
Ar 8.728674e-01 0.000000e+00 0.000000e+00
1
Step 340000
Ar 1.327521e+00 0.000000e+00 0.000000e+00
1
Step 341000
Ar 1.071739e+00 0.000000e+00 0.000000e+00
1
Step 342000
Ar 1.083849e+00 0.000000e+00 0.000000e+00
1
Step 343000
Ar 9.126237e-01 0.000000e+00 0.000000e+00
1
Step 344000
Ar 1.048827e+00 0.000000e+00 0.000000e+00
1
Step 345000
Ar 8.555684e-01 0.000000e+00 0.000000e+00
1
Step 346000
Ar 9.949361e-01 0.000000e+00 0.000000e+00
1
Step 347000
Ar 8.192334e-01 0.000000e+00 0.000000e+00
1
Step 348000
Ar 1.087937e+00 0.000000e+00 0.000000e+00
1
Step 349000
Ar 1.001979e+00 0.000000e+00 0.000000e+00
1
Step 350000
Ar 1.083276e+00 0.000000e+00 0.000000e+00
1
Step 351000
Ar 8.617164e-01 0.000000e+00 0.000000e+00
1
Step 352000
Ar 8.553708e-01 0.000000e+00 0.000000e+00
1
Step 353000
Ar 1.054205e+00 0.000000e+00 0.000000e+00
1
Step 354000
Ar 1.089599e+00 0.000000e+00 0.000000e+00
1
Step 355000
Ar 1.164299e+00 0.000000e+00 0.000000e+00
1
Step 356000
Ar 8.236441e-01 0.000000e+00 0.000000e+00
1
Step 357000
Ar 1.014196e+00 0.000000e+00 0.000000e+00
1
Step 358000
Ar 8.094819e-01 0.000000e+00 0.000000e+00
1
Step 359000
Ar 1.117721e+00 0.000000e+00 0.000000e+00
1
Step 360000
Ar 1.036162e+00 0.000000e+00 0.000000e+00
1
Step 361000
Ar 1.049750e+00 0.000000e+00 0.000000e+00
1
Step 362000
Ar 1.113942e+00 0.000000e+00 0.000000e+00
1
Step 363000
Ar 7.499372e-01 0.000000e+00 0.000000e+00
1
Step 364000
Ar 9.726395e-01 0.000000e+00 0.000000e+00
1
Step 365000
Ar 9.933594e-01 0.000000e+00 0.000000e+00
1
Step 366000
Ar 1.008924e+00 0.000000e+00 0.000000e+00
1
Step 367000
Ar 9.035487e-01 0.000000e+00 0.000000e+00
1
Step 368000
Ar 7.787921e-01 0.000000e+00 0.000000e+00
1
Step 369000
Ar 9.637716e-01 0.000000e+00 0.000000e+00
1
Step 370000
Ar 9.250667e-01 0.000000e+00 0.000000e+00
1
Step 371000
Ar 1.086866e+00 0.000000e+00 0.000000e+00
1
Step 372000
Ar 1.026639e+00 0.000000e+00 0.000000e+00
1
Step 373000
Ar 1.068901e+00 0.000000e+00 0.000000e+00
1
Step 374000
Ar 1.028599e+00 0.000000e+00 0.000000e+00
1
Step 375000
Ar 1.031578e+00 0.000000e+00 0.000000e+00
1
Step 376000
Ar 1.030126e+00 0.000000e+00 0.000000e+00
1
Step 377000
Ar 1.082842e+00 0.000000e+00 0.000000e+00
1
Step 378000
Ar 7.769465e-01 0.000000e+00 0.000000e+00
1
Step 379000
Ar 1.087389e+00 0.000000e+00 0.000000e+00
1
Step 380000
Ar 9.790237e-01 0.000000e+00 0.000000e+00
1
Step 381000
Ar 8.770587e-01 0.000000e+00 0.000000e+00
1
Step 382000
Ar 1.108178e+00 0.000000e+00 0.000000e+00
1
Step 383000
Ar 1.179385e+00 0.000000e+00 0.000000e+00
1
Step 384000
Ar 7.307218e-01 0.000000e+00 0.000000e+00
1
Step 385000
Ar 7.384120e-01 0.000000e+00 0.000000e+00
1
Step 386000
Ar 1.014195e+00 0.000000e+00 0.000000e+00
1
Step 387000
Ar 1.061217e+00 0.000000e+00 0.000000e+00
1
Step 388000
Ar 9.737483e-01 0.000000e+00 0.000000e+00
1
Step 389000
Ar 7.169927e-01 0.000000e+00 0.000000e+00
1
Step 390000
Ar 9.830269e-01 0.000000e+00 0.000000e+00
1
Step 391000
Ar 8.568904e-01 0.000000e+00 0.000000e+00
1
Step 392000
Ar 1.015822e+00 0.000000e+00 0.000000e+00
1
Step 393000
Ar 9.206668e-01 0.000000e+00 0.000000e+00
1
Step 394000
Ar 1.041185e+00 0.000000e+00 0.000000e+00
1
Step 395000
Ar 1.028286e+00 0.000000e+00 0.000000e+00
1
Step 396000
Ar 9.926463e-01 0.000000e+00 0.000000e+00
1
Step 397000
Ar 9.627003e-01 0.000000e+00 0.000000e+00
1
Step 398000
Ar 1.015780e+00 0.000000e+00 0.000000e+00
1
Step 399000
Ar 1.097345e+00 0.000000e+00 0.000000e+00
1
Step 400000
Ar 1.085659e+00 0.000000e+00 0.000000e+00
1
Step 401000
Ar 9.823667e-01 0.000000e+00 0.000000e+00
1
Step 402000
Ar 8.888104e-01 0.000000e+00 0.000000e+00
1
Step 403000
Ar 1.079759e+00 0.000000e+00 0.000000e+00
1
Step 404000
Ar 8.447292e-01 0.000000e+00 0.000000e+00
1
Step 405000
Ar 9.627312e-01 0.000000e+00 0.000000e+00
1
Step 406000
Ar 9.784914e-01 0.000000e+00 0.000000e+00
1
Step 407000
Ar 1.144054e+00 0.000000e+00 0.000000e+00
1
Step 408000
Ar 1.129089e+00 0.000000e+00 0.000000e+00
1
Step 409000
Ar 1.039762e+00 0.000000e+00 0.000000e+00
1
Step 410000
Ar 9.640702e-01 0.000000e+00 0.000000e+00
1
Step 411000
Ar 9.443852e-01 0.000000e+00 0.000000e+00
1
Step 412000
Ar 9.971730e-01 0.000000e+00 0.000000e+00
1
Step 413000
Ar 1.032890e+00 0.000000e+00 0.000000e+00
1
Step 414000
Ar 1.145643e+00 0.000000e+00 0.000000e+00
1
Step 415000
Ar 9.063032e-01 0.000000e+00 0.000000e+00
1
Step 416000
Ar 9.480684e-01 0.000000e+00 0.000000e+00
1
Step 417000
Ar 8.877248e-01 0.000000e+00 0.000000e+00
1
Step 418000
Ar 1.035140e+00 0.000000e+00 0.000000e+00
1
Step 419000
Ar 8.249702e-01 0.000000e+00 0.000000e+00
1
Step 420000
Ar 9.282984e-01 0.000000e+00 0.000000e+00
1
Step 421000
Ar 7.896704e-01 0.000000e+00 0.000000e+00
1
Step 422000
Ar 8.917721e-01 0.000000e+00 0.000000e+00
1
Step 423000
Ar 8.581972e-01 0.000000e+00 0.000000e+00
1
Step 424000
Ar 8.807897e-01 0.000000e+00 0.000000e+00
1
Step 425000
Ar 8.493443e-01 0.000000e+00 0.000000e+00
1
Step 426000
Ar 6.080639e-01 0.000000e+00 0.000000e+00
1
Step 427000
Ar 8.684922e-01 0.000000e+00 0.000000e+00
1
Step 428000
Ar 7.438089e-01 0.000000e+00 0.000000e+00
1
Step 429000
Ar 9.044211e-01 0.000000e+00 0.000000e+00
1
Step 430000
Ar 8.684675e-01 0.000000e+00 0.000000e+00
1
Step 431000
Ar 8.231666e-01 0.000000e+00 0.000000e+00
1
Step 432000
Ar 8.446982e-01 0.000000e+00 0.000000e+00
1
Step 433000
Ar 8.961948e-01 0.000000e+00 0.000000e+00
1
Step 434000
Ar 8.862407e-01 0.000000e+00 0.000000e+00
1
Step 435000
Ar 8.823792e-01 0.000000e+00 0.000000e+00
1
Step 436000
Ar 8.955315e-01 0.000000e+00 0.000000e+00
1
Step 437000
Ar 9.040869e-01 0.000000e+00 0.000000e+00
1
Step 438000
Ar 8.344702e-01 0.000000e+00 0.000000e+00
1
Step 439000
Ar 8.599598e-01 0.000000e+00 0.000000e+00
1
Step 440000
Ar 8.391921e-01 0.000000e+00 0.000000e+00
1
Step 441000
Ar 8.754465e-01 0.000000e+00 0.000000e+00
1
Step 442000
Ar 7.621060e-01 0.000000e+00 0.000000e+00
1
Step 443000
Ar 7.578492e-01 0.000000e+00 0.000000e+00
1
Step 444000
Ar 9.031386e-01 0.000000e+00 0.000000e+00
1
Step 445000
Ar 8.100243e-01 0.000000e+00 0.000000e+00
1
Step 446000
Ar 8.651711e-01 0.000000e+00 0.000000e+00
1
Step 447000
Ar 8.875089e-01 0.000000e+00 0.000000e+00
1
Step 448000
Ar 8.225504e-01 0.000000e+00 0.000000e+00
1
Step 449000
Ar 7.652601e-01 0.000000e+00 0.000000e+00
1
Step 450000
Ar 8.395477e-01 0.000000e+00 0.000000e+00
1
Step 451000
Ar 7.740705e-01 0.000000e+00 0.000000e+00
1
Step 452000
Ar 8.629808e-01 0.000000e+00 0.000000e+00
1
Step 453000
Ar 7.317015e-01 0.000000e+00 0.000000e+00
1
Step 454000
Ar 8.801737e-01 0.000000e+00 0.000000e+00
1
Step 455000
Ar 8.462088e-01 0.000000e+00 0.000000e+00
1
Step 456000
Ar 8.242763e-01 0.000000e+00 0.000000e+00
1
Step 457000
Ar 8.874466e-01 0.000000e+00 0.000000e+00
1
Step 458000
Ar 9.073492e-01 0.000000e+00 0.000000e+00
1
Step 459000
Ar 7.433213e-01 0.000000e+00 0.000000e+00
1
Step 460000
Ar 8.409944e-01 0.000000e+00 0.000000e+00
1
Step 461000
Ar 7.635049e-01 0.000000e+00 0.000000e+00
1
Step 462000
Ar 8.996435e-01 0.000000e+00 0.000000e+00
1
Step 463000
Ar 8.478748e-01 0.000000e+00 0.000000e+00
1
Step 464000
Ar 8.371097e-01 0.000000e+00 0.000000e+00
1
Step 465000
Ar 8.493684e-01 0.000000e+00 0.000000e+00
1
Step 466000
Ar 7.135842e-01 0.000000e+00 0.000000e+00
1
Step 467000
Ar 7.455316e-01 0.000000e+00 0.000000e+00
1
Step 468000
Ar 8.448140e-01 0.000000e+00 0.000000e+00
1
Step 469000
Ar 8.564046e-01 0.000000e+00 0.000000e+00
1
Step 470000
Ar 9.084024e-01 0.000000e+00 0.000000e+00
1
Step 471000
Ar 8.986337e-01 0.000000e+00 0.000000e+00
1
Step 472000
Ar 8.761106e-01 0.000000e+00 0.000000e+00
1
Step 473000
Ar 7.616063e-01 0.000000e+00 0.000000e+00
1
Step 474000
Ar 9.014191e-01 0.000000e+00 0.000000e+00
1
Step 475000
Ar 6.973597e-01 0.000000e+00 0.000000e+00
1
Step 476000
Ar 9.058342e-01 0.000000e+00 0.000000e+00
1
Step 477000
Ar 8.671531e-01 0.000000e+00 0.000000e+00
1
Step 478000
Ar 9.114682e-01 0.000000e+00 0.000000e+00
1
Step 479000
Ar 8.970969e-01 0.000000e+00 0.000000e+00
1
Step 480000
Ar 8.904757e-01 0.000000e+00 0.000000e+00
1
Step 481000
Ar 5.942340e-01 0.000000e+00 0.000000e+00
1
Step 482000
Ar 8.341590e-01 0.000000e+00 0.000000e+00
1
Step 483000
Ar 8.226604e-01 0.000000e+00 0.000000e+00
1
Step 484000
Ar 8.607532e-01 0.000000e+00 0.000000e+00
1
Step 485000
Ar 8.314546e-01 0.000000e+00 0.000000e+00
1
Step 486000
Ar 8.998074e-01 0.000000e+00 0.000000e+00
1
Step 487000
Ar 6.491321e-01 0.000000e+00 0.000000e+00
1
Step 488000
Ar 9.096016e-01 0.000000e+00 0.000000e+00
1
Step 489000
Ar 7.747494e-01 0.000000e+00 0.000000e+00
1
Step 490000
Ar 9.151067e-01 0.000000e+00 0.000000e+00
1
Step 491000
Ar 8.627005e-01 0.000000e+00 0.000000e+00
1
Step 492000
Ar 8.715173e-01 0.000000e+00 0.000000e+00
1
Step 493000
Ar 6.247500e-01 0.000000e+00 0.000000e+00
1
Step 494000
Ar 8.808837e-01 0.000000e+00 0.000000e+00
1
Step 495000
Ar 9.073845e-01 0.000000e+00 0.000000e+00
1
Step 496000
Ar 8.511921e-01 0.000000e+00 0.000000e+00
1
Step 497000
Ar 8.904059e-01 0.000000e+00 0.000000e+00
1
Step 498000
Ar 8.983798e-01 0.000000e+00 0.000000e+00
1
Step 499000
Ar 7.864963e-01 0.000000e+00 0.000000e+00
1
Step 500000
Ar 8.625067e-01 0.000000e+00 0.000000e+00
1
Step 501000
Ar 8.673911e-01 0.000000e+00 0.000000e+00
1
Step 502000
Ar 8.377464e-01 0.000000e+00 0.000000e+00
1
Step 503000
Ar 8.708872e-01 0.000000e+00 0.000000e+00
1
Step 504000
Ar 8.961825e-01 0.000000e+00 0.000000e+00
1
Step 505000
Ar 8.186060e-01 0.000000e+00 0.000000e+00
1
Step 506000
Ar 8.883439e-01 0.000000e+00 0.000000e+00
1
Step 507000
Ar 8.043766e-01 0.000000e+00 0.000000e+00
1
Step 508000
Ar 8.934633e-01 0.000000e+00 0.000000e+00
1
Step 509000
Ar 8.994822e-01 0.000000e+00 0.000000e+00
1
Step 510000
Ar 8.768455e-01 0.000000e+00 0.000000e+00
1
Step 511000
Ar 7.804392e-01 0.000000e+00 0.000000e+00
1
Step 512000
Ar 8.787321e-01 0.000000e+00 0.000000e+00
1
Step 513000
Ar 9.073443e-01 0.000000e+00 0.000000e+00
1
Step 514000
Ar 8.975888e-01 0.000000e+00 0.000000e+00
1
Step 515000
Ar 8.138116e-01 0.000000e+00 0.000000e+00
1
Step 516000
Ar 8.550230e-01 0.000000e+00 0.000000e+00
1
Step 517000
Ar 9.085961e-01 0.000000e+00 0.000000e+00
1
Step 518000
Ar 8.901091e-01 0.000000e+00 0.000000e+00
1
Step 519000
Ar 8.971895e-01 0.000000e+00 0.000000e+00
1
Step 520000
Ar 8.244617e-01 0.000000e+00 0.000000e+00
1
Step 521000
Ar 9.009030e-01 0.000000e+00 0.000000e+00
1
Step 522000
Ar 8.644302e-01 0.000000e+00 0.000000e+00
1
Step 523000
Ar 8.786995e-01 0.000000e+00 0.000000e+00
1
Step 524000
Ar 8.977873e-01 0.000000e+00 0.000000e+00
1
Step 525000
Ar 8.877312e-01 0.000000e+00 0.000000e+00
1
Step 526000
Ar 7.918567e-01 0.000000e+00 0.000000e+00
1
Step 527000
Ar 8.758522e-01 0.000000e+00 0.000000e+00
1
Step 528000
Ar 8.583862e-01 0.000000e+00 0.000000e+00
1
Step 529000
Ar 9.191671e-01 0.000000e+00 0.000000e+00
1
Step 530000
Ar 7.705873e-01 0.000000e+00 0.000000e+00
1
Step 531000
Ar 8.216952e-01 0.000000e+00 0.000000e+00
1
Step 532000
Ar 9.083484e-01 0.000000e+00 0.000000e+00
1
Step 533000
Ar 8.517621e-01 0.000000e+00 0.000000e+00
1
Step 534000
Ar 8.689192e-01 0.000000e+00 0.000000e+00
1
Step 535000
Ar 9.166989e-01 0.000000e+00 0.000000e+00
1
Step 536000
Ar 8.770755e-01 0.000000e+00 0.000000e+00
1
Step 537000
Ar 9.155244e-01 0.000000e+00 0.000000e+00
1
Step 538000
Ar 9.155383e-01 0.000000e+00 0.000000e+00
1
Step 539000
Ar 7.993166e-01 0.000000e+00 0.000000e+00
1
Step 540000
Ar 8.059032e-01 0.000000e+00 0.000000e+00
1
Step 541000
Ar 8.216595e-01 0.000000e+00 0.000000e+00
1
Step 542000
Ar 8.965553e-01 0.000000e+00 0.000000e+00
1
Step 543000
Ar 8.062913e-01 0.000000e+00 0.000000e+00
1
Step 544000
Ar 8.716277e-01 0.000000e+00 0.000000e+00
1
Step 545000
Ar 8.169431e-01 0.000000e+00 0.000000e+00
1
Step 546000
Ar 9.065598e-01 0.000000e+00 0.000000e+00
1
Step 547000
Ar 8.912420e-01 0.000000e+00 0.000000e+00
1
Step 548000
Ar 9.109469e-01 0.000000e+00 0.000000e+00
1
Step 549000
Ar 8.569683e-01 0.000000e+00 0.000000e+00
1
Step 550000
Ar 7.037130e-01 0.000000e+00 0.000000e+00
1
Step 551000
Ar 8.363497e-01 0.000000e+00 0.000000e+00
1
Step 552000
Ar 9.044026e-01 0.000000e+00 0.000000e+00
1
Step 553000
Ar 9.119552e-01 0.000000e+00 0.000000e+00
1
Step 554000
Ar 7.479323e-01 0.000000e+00 0.000000e+00
1
Step 555000
Ar 8.009129e-01 0.000000e+00 0.000000e+00
1
Step 556000
Ar 8.666507e-01 0.000000e+00 0.000000e+00
1
Step 557000
Ar 8.765103e-01 0.000000e+00 0.000000e+00
1
Step 558000
Ar 8.717263e-01 0.000000e+00 0.000000e+00
1
Step 559000
Ar 8.931306e-01 0.000000e+00 0.000000e+00
1
Step 560000
Ar 8.965339e-01 0.000000e+00 0.000000e+00
1
Step 561000
Ar 7.535366e-01 0.000000e+00 0.000000e+00
1
Step 562000
Ar 8.041883e-01 0.000000e+00 0.000000e+00
1
Step 563000
Ar 9.052460e-01 0.000000e+00 0.000000e+00
1
Step 564000
Ar 8.655026e-01 0.000000e+00 0.000000e+00
1
Step 565000
Ar 7.953132e-01 0.000000e+00 0.000000e+00
1
Step 566000
Ar 7.712652e-01 0.000000e+00 0.000000e+00
1
Step 567000
Ar 8.577947e-01 0.000000e+00 0.000000e+00
1
Step 568000
Ar 7.305329e-01 0.000000e+00 0.000000e+00
1
Step 569000
Ar 8.518209e-01 0.000000e+00 0.000000e+00
1
Step 570000
Ar 7.965449e-01 0.000000e+00 0.000000e+00
1
Step 571000
Ar 8.738889e-01 0.000000e+00 0.000000e+00
1
Step 572000
Ar 8.660663e-01 0.000000e+00 0.000000e+00
1
Step 573000
Ar 7.919217e-01 0.000000e+00 0.000000e+00
1
Step 574000
Ar 7.366778e-01 0.000000e+00 0.000000e+00
1
Step 575000
Ar 8.452397e-01 0.000000e+00 0.000000e+00
1
Step 576000
Ar 8.553005e-01 0.000000e+00 0.000000e+00
1
Step 577000
Ar 7.599712e-01 0.000000e+00 0.000000e+00
1
Step 578000
Ar 7.640377e-01 0.000000e+00 0.000000e+00
1
Step 579000
Ar 7.793229e-01 0.000000e+00 0.000000e+00
1
Step 580000
Ar 7.717380e-01 0.000000e+00 0.000000e+00
1
Step 581000
Ar 8.000439e-01 0.000000e+00 0.000000e+00
1
Step 582000
Ar 7.629223e-01 0.000000e+00 0.000000e+00
1
Step 583000
Ar 9.102279e-01 0.000000e+00 0.000000e+00
1
Step 584000
Ar 8.964506e-01 0.000000e+00 0.000000e+00
1
Step 585000
Ar 7.940322e-01 0.000000e+00 0.000000e+00
1
Step 586000
Ar 8.819019e-01 0.000000e+00 0.000000e+00
1
Step 587000
Ar 8.946847e-01 0.000000e+00 0.000000e+00
1
Step 588000
Ar 7.109501e-01 0.000000e+00 0.000000e+00
1
Step 589000
Ar 8.326221e-01 0.000000e+00 0.000000e+00
1
Step 590000
Ar 8.790561e-01 0.000000e+00 0.000000e+00
1
Step 591000
Ar 8.033998e-01 0.000000e+00 0.000000e+00
1
Step 592000
Ar 8.835153e-01 0.000000e+00 0.000000e+00
1
Step 593000
Ar 7.608312e-01 0.000000e+00 0.000000e+00
1
Step 594000
Ar 8.968006e-01 0.000000e+00 0.000000e+00
1
Step 595000
Ar 8.456340e-01 0.000000e+00 0.000000e+00
1
Step 596000
Ar 8.903637e-01 0.000000e+00 0.000000e+00
1
Step 597000
Ar 9.018972e-01 0.000000e+00 0.000000e+00
1
Step 598000
Ar 8.360709e-01 0.000000e+00 0.000000e+00
1
Step 599000
Ar 8.187720e-01 0.000000e+00 0.000000e+00
1
Step 600000
Ar 7.644231e-01 0.000000e+00 0.000000e+00
1
Step 601000
Ar 9.079612e-01 0.000000e+00 0.000000e+00
1
Step 602000
Ar 7.679699e-01 0.000000e+00 0.000000e+00
1
Step 603000
Ar 8.606022e-01 0.000000e+00 0.000000e+00
1
Step 604000
Ar 6.848641e-01 0.000000e+00 0.000000e+00
1
Step 605000
Ar 8.965220e-01 0.000000e+00 0.000000e+00
1
Step 606000
Ar 8.935899e-01 0.000000e+00 0.000000e+00
1
Step 607000
Ar 8.940351e-01 0.000000e+00 0.000000e+00
1
Step 608000
Ar 9.117464e-01 0.000000e+00 0.000000e+00
1
Step 609000
Ar 8.770947e-01 0.000000e+00 0.000000e+00
1
Step 610000
Ar 8.507115e-01 0.000000e+00 0.000000e+00
1
Step 611000
Ar 9.054744e-01 0.000000e+00 0.000000e+00
1
Step 612000
Ar 8.721508e-01 0.000000e+00 0.000000e+00
1
Step 613000
Ar 9.025801e-01 0.000000e+00 0.000000e+00
1
Step 614000
Ar 9.103686e-01 0.000000e+00 0.000000e+00
1
Step 615000
Ar 8.839648e-01 0.000000e+00 0.000000e+00
1
Step 616000
Ar 8.170598e-01 0.000000e+00 0.000000e+00
1
Step 617000
Ar 7.857561e-01 0.000000e+00 0.000000e+00
1
Step 618000
Ar 8.062487e-01 0.000000e+00 0.000000e+00
1
Step 619000
Ar 8.887523e-01 0.000000e+00 0.000000e+00
1
Step 620000
Ar 8.152475e-01 0.000000e+00 0.000000e+00
1
Step 621000
Ar 8.650499e-01 0.000000e+00 0.000000e+00
1
Step 622000
Ar 8.733416e-01 0.000000e+00 0.000000e+00
1
Step 623000
Ar 8.906258e-01 0.000000e+00 0.000000e+00
1
Step 624000
Ar 9.033970e-01 0.000000e+00 0.000000e+00
1
Step 625000
Ar 9.191483e-01 0.000000e+00 0.000000e+00
1
Step 626000
Ar 8.101178e-01 0.000000e+00 0.000000e+00
1
Step 627000
Ar 8.760270e-01 0.000000e+00 0.000000e+00
1
Step 628000
Ar 8.529974e-01 0.000000e+00 0.000000e+00
1
Step 629000
Ar 9.144644e-01 0.000000e+00 0.000000e+00
1
Step 630000
Ar 8.611764e-01 0.000000e+00 0.000000e+00
1
Step 631000
Ar 8.800581e-01 0.000000e+00 0.000000e+00
1
Step 632000
Ar 8.771782e-01 0.000000e+00 0.000000e+00
1
Step 633000
Ar 8.668084e-01 0.000000e+00 0.000000e+00
1
Step 634000
Ar 8.248892e-01 0.000000e+00 0.000000e+00
1
Step 635000
Ar 9.029634e-01 0.000000e+00 0.000000e+00
1
Step 636000
Ar 8.156941e-01 0.000000e+00 0.000000e+00
1
Step 637000
Ar 7.514473e-01 0.000000e+00 0.000000e+00
1
Step 638000
Ar 6.800728e-01 0.000000e+00 0.000000e+00
1
Step 639000
Ar 8.384262e-01 0.000000e+00 0.000000e+00
1
Step 640000
Ar 7.411886e-01 0.000000e+00 0.000000e+00
1
Step 641000
Ar 7.496595e-01 0.000000e+00 0.000000e+00
1
Step 642000
Ar 8.999876e-01 0.000000e+00 0.000000e+00
1
Step 643000
Ar 8.619221e-01 0.000000e+00 0.000000e+00
1
Step 644000
Ar 7.670801e-01 0.000000e+00 0.000000e+00
1
Step 645000
Ar 6.401744e-01 0.000000e+00 0.000000e+00
1
Step 646000
Ar 7.969143e-01 0.000000e+00 0.000000e+00
1
Step 647000
Ar 8.704412e-01 0.000000e+00 0.000000e+00
1
Step 648000
Ar 8.845654e-01 0.000000e+00 0.000000e+00
1
Step 649000
Ar 9.150698e-01 0.000000e+00 0.000000e+00
1
Step 650000
Ar 8.642759e-01 0.000000e+00 0.000000e+00
1
Step 651000
Ar 9.152394e-01 0.000000e+00 0.000000e+00
1
Step 652000
Ar 8.090627e-01 0.000000e+00 0.000000e+00
1
Step 653000
Ar 8.345288e-01 0.000000e+00 0.000000e+00
1
Step 654000
Ar 8.724523e-01 0.000000e+00 0.000000e+00
1
Step 655000
Ar 7.553978e-01 0.000000e+00 0.000000e+00
1
Step 656000
Ar 8.186024e-01 0.000000e+00 0.000000e+00
1
Step 657000
Ar 8.428503e-01 0.000000e+00 0.000000e+00
1
Step 658000
Ar 8.226516e-01 0.000000e+00 0.000000e+00
1
Step 659000
Ar 7.747202e-01 0.000000e+00 0.000000e+00
1
Step 660000
Ar 8.225680e-01 0.000000e+00 0.000000e+00
1
Step 661000
Ar 8.595841e-01 0.000000e+00 0.000000e+00
1
Step 662000
Ar 8.132734e-01 0.000000e+00 0.000000e+00
1
Step 663000
Ar 8.910690e-01 0.000000e+00 0.000000e+00
1
Step 664000
Ar 8.894724e-01 0.000000e+00 0.000000e+00
1
Step 665000
Ar 8.746219e-01 0.000000e+00 0.000000e+00
1
Step 666000
Ar 8.814142e-01 0.000000e+00 0.000000e+00
1
Step 667000
Ar 9.163322e-01 0.000000e+00 0.000000e+00
1
Step 668000
Ar 8.097489e-01 0.000000e+00 0.000000e+00
1
Step 669000
Ar 7.995554e-01 0.000000e+00 0.000000e+00
1
Step 670000
Ar 8.454862e-01 0.000000e+00 0.000000e+00
1
Step 671000
Ar 8.016509e-01 0.000000e+00 0.000000e+00
1
Step 672000
Ar 8.483694e-01 0.000000e+00 0.000000e+00
1
Step 673000
Ar 7.286106e-01 0.000000e+00 0.000000e+00
1
Step 674000
Ar 8.401309e-01 0.000000e+00 0.000000e+00
1
Step 675000
Ar 7.516692e-01 0.000000e+00 0.000000e+00
1
Step 676000
Ar 8.674410e-01 0.000000e+00 0.000000e+00
1
Step 677000
Ar 8.221892e-01 0.000000e+00 0.000000e+00
1
Step 678000
Ar 8.858412e-01 0.000000e+00 0.000000e+00
1
Step 679000
Ar 8.177783e-01 0.000000e+00 0.000000e+00
1
Step 680000
Ar 8.622802e-01 0.000000e+00 0.000000e+00
1
Step 681000
Ar 9.158462e-01 0.000000e+00 0.000000e+00
1
Step 682000
Ar 8.797654e-01 0.000000e+00 0.000000e+00
1
Step 683000
Ar 8.646588e-01 0.000000e+00 0.000000e+00
1
Step 684000
Ar 8.160160e-01 0.000000e+00 0.000000e+00
1
Step 685000
Ar 8.941809e-01 0.000000e+00 0.000000e+00
1
Step 686000
Ar 8.808098e-01 0.000000e+00 0.000000e+00
1
Step 687000
Ar 8.744308e-01 0.000000e+00 0.000000e+00
1
Step 688000
Ar 7.587276e-01 0.000000e+00 0.000000e+00
1
Step 689000
Ar 8.814790e-01 0.000000e+00 0.000000e+00
1
Step 690000
Ar 8.133809e-01 0.000000e+00 0.000000e+00
1
Step 691000
Ar 7.667170e-01 0.000000e+00 0.000000e+00
1
Step 692000
Ar 8.877361e-01 0.000000e+00 0.000000e+00
1
Step 693000
Ar 7.957856e-01 0.000000e+00 0.000000e+00
1
Step 694000
Ar 7.835763e-01 0.000000e+00 0.000000e+00
1
Step 695000
Ar 8.872780e-01 0.000000e+00 0.000000e+00
1
Step 696000
Ar 8.253895e-01 0.000000e+00 0.000000e+00
1
Step 697000
Ar 8.683932e-01 0.000000e+00 0.000000e+00
1
Step 698000
Ar 8.388375e-01 0.000000e+00 0.000000e+00
1
Step 699000
Ar 8.778616e-01 0.000000e+00 0.000000e+00
1
Step 700000
Ar 9.124779e-01 0.000000e+00 0.000000e+00
1
Step 701000
Ar 8.270469e-01 0.000000e+00 0.000000e+00
1
Step 702000
Ar 8.902098e-01 0.000000e+00 0.000000e+00
1
Step 703000
Ar 9.108038e-01 0.000000e+00 0.000000e+00
1
Step 704000
Ar 8.918827e-01 0.000000e+00 0.000000e+00
1
Step 705000
Ar 8.759224e-01 0.000000e+00 0.000000e+00
1
Step 706000
Ar 8.388078e-01 0.000000e+00 0.000000e+00
1
Step 707000
Ar 9.044612e-01 0.000000e+00 0.000000e+00
1
Step 708000
Ar 8.880941e-01 0.000000e+00 0.000000e+00
1
Step 709000
Ar 9.160980e-01 0.000000e+00 0.000000e+00
1
Step 710000
Ar 9.040253e-01 0.000000e+00 0.000000e+00
1
Step 711000
Ar 8.328316e-01 0.000000e+00 0.000000e+00
1
Step 712000
Ar 7.295626e-01 0.000000e+00 0.000000e+00
1
Step 713000
Ar 8.872888e-01 0.000000e+00 0.000000e+00
1
Step 714000
Ar 8.990952e-01 0.000000e+00 0.000000e+00
1
Step 715000
Ar 7.149935e-01 0.000000e+00 0.000000e+00
1
Step 716000
Ar 9.050390e-01 0.000000e+00 0.000000e+00
1
Step 717000
Ar 9.003878e-01 0.000000e+00 0.000000e+00
1
Step 718000
Ar 7.485685e-01 0.000000e+00 0.000000e+00
1
Step 719000
Ar 9.200136e-01 0.000000e+00 0.000000e+00
1
Step 720000
Ar 8.950264e-01 0.000000e+00 0.000000e+00
1
Step 721000
Ar 8.647676e-01 0.000000e+00 0.000000e+00
1
Step 722000
Ar 7.793055e-01 0.000000e+00 0.000000e+00
1
Step 723000
Ar 8.109063e-01 0.000000e+00 0.000000e+00
1
Step 724000
Ar 8.199087e-01 0.000000e+00 0.000000e+00
1
Step 725000
Ar 9.026899e-01 0.000000e+00 0.000000e+00
1
Step 726000
Ar 7.806581e-01 0.000000e+00 0.000000e+00
1
Step 727000
Ar 8.034749e-01 0.000000e+00 0.000000e+00
1
Step 728000
Ar 7.572602e-01 0.000000e+00 0.000000e+00
1
Step 729000
Ar 8.698980e-01 0.000000e+00 0.000000e+00
1
Step 730000
Ar 8.466915e-01 0.000000e+00 0.000000e+00
1
Step 731000
Ar 5.324058e-01 0.000000e+00 0.000000e+00
1
Step 732000
Ar 7.110743e-01 0.000000e+00 0.000000e+00
1
Step 733000
Ar 8.999090e-01 0.000000e+00 0.000000e+00
1
Step 734000
Ar 9.111331e-01 0.000000e+00 0.000000e+00
1
Step 735000
Ar 8.737922e-01 0.000000e+00 0.000000e+00
1
Step 736000
Ar 8.086333e-01 0.000000e+00 0.000000e+00
1
Step 737000
Ar 8.891636e-01 0.000000e+00 0.000000e+00
1
Step 738000
Ar 7.763886e-01 0.000000e+00 0.000000e+00
1
Step 739000
Ar 8.644610e-01 0.000000e+00 0.000000e+00
1
Step 740000
Ar 7.313286e-01 0.000000e+00 0.000000e+00
1
Step 741000
Ar 8.738832e-01 0.000000e+00 0.000000e+00
1
Step 742000
Ar 9.014452e-01 0.000000e+00 0.000000e+00
1
Step 743000
Ar 8.660146e-01 0.000000e+00 0.000000e+00
1
Step 744000
Ar 9.140997e-01 0.000000e+00 0.000000e+00
1
Step 745000
Ar 8.280260e-01 0.000000e+00 0.000000e+00
1
Step 746000
Ar 8.402627e-01 0.000000e+00 0.000000e+00
1
Step 747000
Ar 8.754954e-01 0.000000e+00 0.000000e+00
1
Step 748000
Ar 8.822485e-01 0.000000e+00 0.000000e+00
1
Step 749000
Ar 8.951939e-01 0.000000e+00 0.000000e+00
1
Step 750000
Ar 7.950718e-01 0.000000e+00 0.000000e+00
1
Step 751000
Ar 8.254213e-01 0.000000e+00 0.000000e+00
1
Step 752000
Ar 7.112145e-01 0.000000e+00 0.000000e+00
1
Step 753000
Ar 8.796526e-01 0.000000e+00 0.000000e+00
1
Step 754000
Ar 9.127162e-01 0.000000e+00 0.000000e+00
1
Step 755000
Ar 8.713731e-01 0.000000e+00 0.000000e+00
1
Step 756000
Ar 9.069221e-01 0.000000e+00 0.000000e+00
1
Step 757000
Ar 8.975443e-01 0.000000e+00 0.000000e+00
1
Step 758000
Ar 7.364599e-01 0.000000e+00 0.000000e+00
1
Step 759000
Ar 8.503932e-01 0.000000e+00 0.000000e+00
1
Step 760000
Ar 7.888130e-01 0.000000e+00 0.000000e+00
1
Step 761000
Ar 8.662741e-01 0.000000e+00 0.000000e+00
1
Step 762000
Ar 8.404804e-01 0.000000e+00 0.000000e+00
1
Step 763000
Ar 9.048366e-01 0.000000e+00 0.000000e+00
1
Step 764000
Ar 8.027068e-01 0.000000e+00 0.000000e+00
1
Step 765000
Ar 8.712896e-01 0.000000e+00 0.000000e+00
1
Step 766000
Ar 8.470000e-01 0.000000e+00 0.000000e+00
1
Step 767000
Ar 7.102730e-01 0.000000e+00 0.000000e+00
1
Step 768000
Ar 8.192836e-01 0.000000e+00 0.000000e+00
1
Step 769000
Ar 7.828036e-01 0.000000e+00 0.000000e+00
1
Step 770000
Ar 9.030384e-01 0.000000e+00 0.000000e+00
1
Step 771000
Ar 8.917183e-01 0.000000e+00 0.000000e+00
1
Step 772000
Ar 8.073545e-01 0.000000e+00 0.000000e+00
1
Step 773000
Ar 7.452814e-01 0.000000e+00 0.000000e+00
1
Step 774000
Ar 7.929013e-01 0.000000e+00 0.000000e+00
1
Step 775000
Ar 9.026743e-01 0.000000e+00 0.000000e+00
1
Step 776000
Ar 8.146887e-01 0.000000e+00 0.000000e+00
1
Step 777000
Ar 9.080358e-01 0.000000e+00 0.000000e+00
1
Step 778000
Ar 6.092263e-01 0.000000e+00 0.000000e+00
1
Step 779000
Ar 9.191708e-01 0.000000e+00 0.000000e+00
1
Step 780000
Ar 8.171961e-01 0.000000e+00 0.000000e+00
1
Step 781000
Ar 9.173931e-01 0.000000e+00 0.000000e+00
1
Step 782000
Ar 8.554755e-01 0.000000e+00 0.000000e+00
1
Step 783000
Ar 8.852906e-01 0.000000e+00 0.000000e+00
1
Step 784000
Ar 8.278068e-01 0.000000e+00 0.000000e+00
1
Step 785000
Ar 6.512970e-01 0.000000e+00 0.000000e+00
1
Step 786000
Ar 8.568227e-01 0.000000e+00 0.000000e+00
1
Step 787000
Ar 9.180181e-01 0.000000e+00 0.000000e+00
1
Step 788000
Ar 8.170712e-01 0.000000e+00 0.000000e+00
1
Step 789000
Ar 8.793453e-01 0.000000e+00 0.000000e+00
1
Step 790000
Ar 7.153939e-01 0.000000e+00 0.000000e+00
1
Step 791000
Ar 7.237727e-01 0.000000e+00 0.000000e+00
1
Step 792000
Ar 7.232261e-01 0.000000e+00 0.000000e+00
1
Step 793000
Ar 6.811523e-01 0.000000e+00 0.000000e+00
1
Step 794000
Ar 8.772020e-01 0.000000e+00 0.000000e+00
1
Step 795000
Ar 7.948144e-01 0.000000e+00 0.000000e+00
1
Step 796000
Ar 8.582553e-01 0.000000e+00 0.000000e+00
1
Step 797000
Ar 8.613180e-01 0.000000e+00 0.000000e+00
1
Step 798000
Ar 7.611279e-01 0.000000e+00 0.000000e+00
1
Step 799000
Ar 8.200550e-01 0.000000e+00 0.000000e+00
1
Step 800000
Ar 8.902819e-01 0.000000e+00 0.000000e+00
1
Step 801000
Ar 8.017115e-01 0.000000e+00 0.000000e+00
1
Step 802000
Ar 8.691126e-01 0.000000e+00 0.000000e+00
1
Step 803000
Ar 7.730262e-01 0.000000e+00 0.000000e+00
1
Step 804000
Ar 8.485477e-01 0.000000e+00 0.000000e+00
1
Step 805000
Ar 8.542230e-01 0.000000e+00 0.000000e+00
1
Step 806000
Ar 8.463751e-01 0.000000e+00 0.000000e+00
1
Step 807000
Ar 9.083012e-01 0.000000e+00 0.000000e+00
1
Step 808000
Ar 8.011866e-01 0.000000e+00 0.000000e+00
1
Step 809000
Ar 8.735571e-01 0.000000e+00 0.000000e+00
1
Step 810000
Ar 8.614867e-01 0.000000e+00 0.000000e+00
1
Step 811000
Ar 8.040241e-01 0.000000e+00 0.000000e+00
1
Step 812000
Ar 8.252646e-01 0.000000e+00 0.000000e+00
1
Step 813000
Ar 8.640766e-01 0.000000e+00 0.000000e+00
1
Step 814000
Ar 8.772922e-01 0.000000e+00 0.000000e+00
1
Step 815000
Ar 7.656641e-01 0.000000e+00 0.000000e+00
1
Step 816000
Ar 8.789802e-01 0.000000e+00 0.000000e+00
1
Step 817000
Ar 8.515338e-01 0.000000e+00 0.000000e+00
1
Step 818000
Ar 7.726641e-01 0.000000e+00 0.000000e+00
1
Step 819000
Ar 8.938510e-01 0.000000e+00 0.000000e+00
1
Step 820000
Ar 8.970399e-01 0.000000e+00 0.000000e+00
1
Step 821000
Ar 9.037162e-01 0.000000e+00 0.000000e+00
1
Step 822000
Ar 9.120758e-01 0.000000e+00 0.000000e+00
1
Step 823000
Ar 7.693547e-01 0.000000e+00 0.000000e+00
1
Step 824000
Ar 8.740444e-01 0.000000e+00 0.000000e+00
1
Step 825000
Ar 8.990232e-01 0.000000e+00 0.000000e+00
1
Step 826000
Ar 8.787473e-01 0.000000e+00 0.000000e+00
1
Step 827000
Ar 7.934776e-01 0.000000e+00 0.000000e+00
1
Step 828000
Ar 8.255343e-01 0.000000e+00 0.000000e+00
1
Step 829000
Ar 8.790898e-01 0.000000e+00 0.000000e+00
1
Step 830000
Ar 7.355131e-01 0.000000e+00 0.000000e+00
1
Step 831000
Ar 8.950695e-01 0.000000e+00 0.000000e+00
1
Step 832000
Ar 7.099450e-01 0.000000e+00 0.000000e+00
1
Step 833000
Ar 8.796748e-01 0.000000e+00 0.000000e+00
1
Step 834000
Ar 8.683189e-01 0.000000e+00 0.000000e+00
1
Step 835000
Ar 8.468011e-01 0.000000e+00 0.000000e+00
1
Step 836000
Ar 8.453382e-01 0.000000e+00 0.000000e+00
1
Step 837000
Ar 8.778633e-01 0.000000e+00 0.000000e+00
1
Step 838000
Ar 7.451816e-01 0.000000e+00 0.000000e+00
1
Step 839000
Ar 8.896410e-01 0.000000e+00 0.000000e+00
1
Step 840000
Ar 8.860273e-01 0.000000e+00 0.000000e+00
1
Step 841000
Ar 8.778914e-01 0.000000e+00 0.000000e+00
1
Step 842000
Ar 7.256158e-01 0.000000e+00 0.000000e+00
1
Step 843000
Ar 7.964224e-01 0.000000e+00 0.000000e+00
1
Step 844000
Ar 9.064900e-01 0.000000e+00 0.000000e+00
1
Step 845000
Ar 8.573666e-01 0.000000e+00 0.000000e+00
1
Step 846000
Ar 3.850102e-01 0.000000e+00 0.000000e+00
1
Step 847000
Ar 8.999215e-01 0.000000e+00 0.000000e+00
1
Step 848000
Ar 7.251132e-01 0.000000e+00 0.000000e+00
1
Step 849000
Ar 8.029393e-01 0.000000e+00 0.000000e+00
1
Step 850000
Ar 9.042658e-01 0.000000e+00 0.000000e+00
1
Step 851000
Ar 9.023864e-01 0.000000e+00 0.000000e+00
1
Step 852000
Ar 7.850144e-01 0.000000e+00 0.000000e+00
1
Step 853000
Ar 8.428633e-01 0.000000e+00 0.000000e+00
1
Step 854000
Ar 9.005146e-01 0.000000e+00 0.000000e+00
1
Step 855000
Ar 7.985927e-01 0.000000e+00 0.000000e+00
1
Step 856000
Ar 8.750127e-01 0.000000e+00 0.000000e+00
1
Step 857000
Ar 8.330669e-01 0.000000e+00 0.000000e+00
1
Step 858000
Ar 9.087203e-01 0.000000e+00 0.000000e+00
1
Step 859000
Ar 8.824816e-01 0.000000e+00 0.000000e+00
1
Step 860000
Ar 8.643449e-01 0.000000e+00 0.000000e+00
1
Step 861000
Ar 8.689306e-01 0.000000e+00 0.000000e+00
1
Step 862000
Ar 8.089883e-01 0.000000e+00 0.000000e+00
1
Step 863000
Ar 7.524416e-01 0.000000e+00 0.000000e+00
1
Step 864000
Ar 8.489250e-01 0.000000e+00 0.000000e+00
1
Step 865000
Ar 7.424562e-01 0.000000e+00 0.000000e+00
1
Step 866000
Ar 9.173111e-01 0.000000e+00 0.000000e+00
1
Step 867000
Ar 8.609598e-01 0.000000e+00 0.000000e+00
1
Step 868000
Ar 8.641822e-01 0.000000e+00 0.000000e+00
1
Step 869000
Ar 8.400304e-01 0.000000e+00 0.000000e+00
1
Step 870000
Ar 8.654179e-01 0.000000e+00 0.000000e+00
1
Step 871000
Ar 9.067510e-01 0.000000e+00 0.000000e+00
1
Step 872000
Ar 8.297931e-01 0.000000e+00 0.000000e+00
1
Step 873000
Ar 9.096273e-01 0.000000e+00 0.000000e+00
1
Step 874000
Ar 7.991734e-01 0.000000e+00 0.000000e+00
1
Step 875000
Ar 7.656609e-01 0.000000e+00 0.000000e+00
1
Step 876000
Ar 7.746031e-01 0.000000e+00 0.000000e+00
1
Step 877000
Ar 7.226638e-01 0.000000e+00 0.000000e+00
1
Step 878000
Ar 8.920435e-01 0.000000e+00 0.000000e+00
1
Step 879000
Ar 9.013188e-01 0.000000e+00 0.000000e+00
1
Step 880000
Ar 7.772800e-01 0.000000e+00 0.000000e+00
1
Step 881000
Ar 9.110260e-01 0.000000e+00 0.000000e+00
1
Step 882000
Ar 8.614008e-01 0.000000e+00 0.000000e+00
1
Step 883000
Ar 9.046926e-01 0.000000e+00 0.000000e+00
1
Step 884000
Ar 9.157900e-01 0.000000e+00 0.000000e+00
1
Step 885000
Ar 9.140426e-01 0.000000e+00 0.000000e+00
1
Step 886000
Ar 8.619362e-01 0.000000e+00 0.000000e+00
1
Step 887000
Ar 9.151642e-01 0.000000e+00 0.000000e+00
1
Step 888000
Ar 9.014167e-01 0.000000e+00 0.000000e+00
1
Step 889000
Ar 8.765803e-01 0.000000e+00 0.000000e+00
1
Step 890000
Ar 8.854866e-01 0.000000e+00 0.000000e+00
1
Step 891000
Ar 8.528680e-01 0.000000e+00 0.000000e+00
1
Step 892000
Ar 8.245332e-01 0.000000e+00 0.000000e+00
1
Step 893000
Ar 8.682579e-01 0.000000e+00 0.000000e+00
1
Step 894000
Ar 8.844115e-01 0.000000e+00 0.000000e+00
1
Step 895000
Ar 8.090068e-01 0.000000e+00 0.000000e+00
1
Step 896000
Ar 6.952904e-01 0.000000e+00 0.000000e+00
1
Step 897000
Ar 7.769694e-01 0.000000e+00 0.000000e+00
1
Step 898000
Ar 8.600091e-01 0.000000e+00 0.000000e+00
1
Step 899000
Ar 8.147955e-01 0.000000e+00 0.000000e+00
1
Step 900000
Ar 8.056170e-01 0.000000e+00 0.000000e+00
1
Step 901000
Ar 8.835076e-01 0.000000e+00 0.000000e+00
1
Step 902000
Ar 7.626208e-01 0.000000e+00 0.000000e+00
1
Step 903000
Ar 8.851703e-01 0.000000e+00 0.000000e+00
1
Step 904000
Ar 8.157983e-01 0.000000e+00 0.000000e+00
1
Step 905000
Ar 8.989379e-01 0.000000e+00 0.000000e+00
1
Step 906000
Ar 8.173274e-01 0.000000e+00 0.000000e+00
1
Step 907000
Ar 8.246343e-01 0.000000e+00 0.000000e+00
1
Step 908000
Ar 8.435678e-01 0.000000e+00 0.000000e+00
1
Step 909000
Ar 7.701024e-01 0.000000e+00 0.000000e+00
1
Step 910000
Ar 9.094382e-01 0.000000e+00 0.000000e+00
1
Step 911000
Ar 8.671916e-01 0.000000e+00 0.000000e+00
1
Step 912000
Ar 7.724875e-01 0.000000e+00 0.000000e+00
1
Step 913000
Ar 8.957052e-01 0.000000e+00 0.000000e+00
1
Step 914000
Ar 8.812821e-01 0.000000e+00 0.000000e+00
1
Step 915000
Ar 6.125807e-01 0.000000e+00 0.000000e+00
1
Step 916000
Ar 8.496528e-01 0.000000e+00 0.000000e+00
1
Step 917000
Ar 9.129597e-01 0.000000e+00 0.000000e+00
1
Step 918000
Ar 8.365906e-01 0.000000e+00 0.000000e+00
1
Step 919000
Ar 8.786882e-01 0.000000e+00 0.000000e+00
1
Step 920000
Ar 6.754144e-01 0.000000e+00 0.000000e+00
1
Step 921000
Ar 8.394422e-01 0.000000e+00 0.000000e+00
1
Step 922000
Ar 9.153191e-01 0.000000e+00 0.000000e+00
1
Step 923000
Ar 7.929118e-01 0.000000e+00 0.000000e+00
1
Step 924000
Ar 8.554166e-01 0.000000e+00 0.000000e+00
1
Step 925000
Ar 8.587548e-01 0.000000e+00 0.000000e+00
1
Step 926000
Ar 8.792006e-01 0.000000e+00 0.000000e+00
1
Step 927000
Ar 8.253769e-01 0.000000e+00 0.000000e+00
1
Step 928000
Ar 7.707135e-01 0.000000e+00 0.000000e+00
1
Step 929000
Ar 8.073883e-01 0.000000e+00 0.000000e+00
1
Step 930000
Ar 8.540711e-01 0.000000e+00 0.000000e+00
1
Step 931000
Ar 8.935999e-01 0.000000e+00 0.000000e+00
1
Step 932000
Ar 8.853533e-01 0.000000e+00 0.000000e+00
1
Step 933000
Ar 7.443577e-01 0.000000e+00 0.000000e+00
1
Step 934000
Ar 8.761854e-01 0.000000e+00 0.000000e+00
1
Step 935000
Ar 8.833735e-01 0.000000e+00 0.000000e+00
1
Step 936000
Ar 6.825257e-01 0.000000e+00 0.000000e+00
1
Step 937000
Ar 7.450969e-01 0.000000e+00 0.000000e+00
1
Step 938000
Ar 8.554927e-01 0.000000e+00 0.000000e+00
1
Step 939000
Ar 8.728056e-01 0.000000e+00 0.000000e+00
1
Step 940000
Ar 7.828196e-01 0.000000e+00 0.000000e+00
1
Step 941000
Ar 8.512605e-01 0.000000e+00 0.000000e+00
1
Step 942000
Ar 8.691272e-01 0.000000e+00 0.000000e+00
1
Step 943000
Ar 8.885672e-01 0.000000e+00 0.000000e+00
1
Step 944000
Ar 8.129848e-01 0.000000e+00 0.000000e+00
1
Step 945000
Ar 8.606006e-01 0.000000e+00 0.000000e+00
1
Step 946000
Ar 8.771309e-01 0.000000e+00 0.000000e+00
1
Step 947000
Ar 8.481605e-01 0.000000e+00 0.000000e+00
1
Step 948000
Ar 7.835980e-01 0.000000e+00 0.000000e+00
1
Step 949000
Ar 8.462874e-01 0.000000e+00 0.000000e+00
1
Step 950000
Ar 8.991458e-01 0.000000e+00 0.000000e+00
1
Step 951000
Ar 8.539801e-01 0.000000e+00 0.000000e+00
1
Step 952000
Ar 6.774113e-01 0.000000e+00 0.000000e+00
1
Step 953000
Ar 8.450309e-01 0.000000e+00 0.000000e+00
1
Step 954000
Ar 8.529494e-01 0.000000e+00 0.000000e+00
1
Step 955000
Ar 8.389516e-01 0.000000e+00 0.000000e+00
1
Step 956000
Ar 8.601405e-01 0.000000e+00 0.000000e+00
1
Step 957000
Ar 9.082506e-01 0.000000e+00 0.000000e+00
1
Step 958000
Ar 9.097059e-01 0.000000e+00 0.000000e+00
1
Step 959000
Ar 6.882858e-01 0.000000e+00 0.000000e+00
1
Step 960000
Ar 8.515433e-01 0.000000e+00 0.000000e+00
1
Step 961000
Ar 8.312450e-01 0.000000e+00 0.000000e+00
1
Step 962000
Ar 8.667817e-01 0.000000e+00 0.000000e+00
1
Step 963000
Ar 8.468681e-01 0.000000e+00 0.000000e+00
1
Step 964000
Ar 8.069567e-01 0.000000e+00 0.000000e+00
1
Step 965000
Ar 7.872567e-01 0.000000e+00 0.000000e+00
1
Step 966000
Ar 8.815973e-01 0.000000e+00 0.000000e+00
1
Step 967000
Ar 7.205729e-01 0.000000e+00 0.000000e+00
1
Step 968000
Ar 7.974086e-01 0.000000e+00 0.000000e+00
1
Step 969000
Ar 9.086084e-01 0.000000e+00 0.000000e+00
1
Step 970000
Ar 8.938762e-01 0.000000e+00 0.000000e+00
1
Step 971000
Ar 8.382706e-01 0.000000e+00 0.000000e+00
1
Step 972000
Ar 7.453939e-01 0.000000e+00 0.000000e+00
1
Step 973000
Ar 8.882952e-01 0.000000e+00 0.000000e+00
1
Step 974000
Ar 8.642160e-01 0.000000e+00 0.000000e+00
1
Step 975000
Ar 8.047812e-01 0.000000e+00 0.000000e+00
1
Step 976000
Ar 7.494914e-01 0.000000e+00 0.000000e+00
1
Step 977000
Ar 8.204776e-01 0.000000e+00 0.000000e+00
1
Step 978000
Ar 8.862550e-01 0.000000e+00 0.000000e+00
1
Step 979000
Ar 8.872977e-01 0.000000e+00 0.000000e+00
1
Step 980000
Ar 8.860088e-01 0.000000e+00 0.000000e+00
1
Step 981000
Ar 7.608740e-01 0.000000e+00 0.000000e+00
1
Step 982000
Ar 8.875625e-01 0.000000e+00 0.000000e+00
1
Step 983000
Ar 7.746760e-01 0.000000e+00 0.000000e+00
1
Step 984000
Ar 9.020613e-01 0.000000e+00 0.000000e+00
1
Step 985000
Ar 8.253921e-01 0.000000e+00 0.000000e+00
1
Step 986000
Ar 8.308063e-01 0.000000e+00 0.000000e+00
1
Step 987000
Ar 8.440541e-01 0.000000e+00 0.000000e+00
1
Step 988000
Ar 8.617229e-01 0.000000e+00 0.000000e+00
1
Step 989000
Ar 7.871928e-01 0.000000e+00 0.000000e+00
1
Step 990000
Ar 9.042237e-01 0.000000e+00 0.000000e+00
1
Step 991000
Ar 8.317465e-01 0.000000e+00 0.000000e+00
1
Step 992000
Ar 9.134348e-01 0.000000e+00 0.000000e+00
1
Step 993000
Ar 9.113839e-01 0.000000e+00 0.000000e+00
1
Step 994000
Ar 9.032096e-01 0.000000e+00 0.000000e+00
1
Step 995000
Ar 8.161268e-01 0.000000e+00 0.000000e+00
1
Step 996000
Ar 5.823757e-01 0.000000e+00 0.000000e+00
1
Step 997000
Ar 9.081641e-01 0.000000e+00 0.000000e+00
1
Step 998000
Ar 7.593696e-01 0.000000e+00 0.000000e+00
1
Step 999000
Ar 9.181328e-01 0.000000e+00 0.000000e+00
