1
Step 120000
Ar 9.426844e-01 0.000000e+00 0.000000e+00
1
Step 121000
Ar 9.348946e-01 0.000000e+00 0.000000e+00
1
Step 122000
Ar 1.018362e+00 0.000000e+00 0.000000e+00
1
Step 123000
Ar 1.053369e+00 0.000000e+00 0.000000e+00
1
Step 124000
Ar 9.679364e-01 0.000000e+00 0.000000e+00
1
Step 125000
Ar 8.676482e-01 0.000000e+00 0.000000e+00
1
Step 126000
Ar 8.012755e-01 0.000000e+00 0.000000e+00
1
Step 127000
Ar 8.429237e-01 0.000000e+00 0.000000e+00
1
Step 128000
Ar 9.453404e-01 0.000000e+00 0.000000e+00
1
Step 129000
Ar 9.937168e-01 0.000000e+00 0.000000e+00
1
Step 130000
Ar 1.104515e+00 0.000000e+00 0.000000e+00
1
Step 131000
Ar 1.049703e+00 0.000000e+00 0.000000e+00
1
Step 132000
Ar 1.066796e+00 0.000000e+00 0.000000e+00
1
Step 133000
Ar 1.178605e+00 0.000000e+00 0.000000e+00
1
Step 134000
Ar 8.028155e-01 0.000000e+00 0.000000e+00
1
Step 135000
Ar 1.121318e+00 0.000000e+00 0.000000e+00
1
Step 136000
Ar 1.029943e+00 0.000000e+00 0.000000e+00
1
Step 137000
Ar 1.131282e+00 0.000000e+00 0.000000e+00
1
Step 138000
Ar 8.664797e-01 0.000000e+00 0.000000e+00
1
Step 139000
Ar 1.008296e+00 0.000000e+00 0.000000e+00
1
Step 140000
Ar 1.018032e+00 0.000000e+00 0.000000e+00
1
Step 141000
Ar 9.114633e-01 0.000000e+00 0.000000e+00
1
Step 142000
Ar 1.017509e+00 0.000000e+00 0.000000e+00
1
Step 143000
Ar 9.848208e-01 0.000000e+00 0.000000e+00
1
Step 144000
Ar 1.014929e+00 0.000000e+00 0.000000e+00
1
Step 145000
Ar 9.648532e-01 0.000000e+00 0.000000e+00
1
Step 146000
Ar 7.363539e-01 0.000000e+00 0.000000e+00
1
Step 147000
Ar 1.253429e+00 0.000000e+00 0.000000e+00
1
Step 148000
Ar 1.041746e+00 0.000000e+00 0.000000e+00
1
Step 149000
Ar 1.018356e+00 0.000000e+00 0.000000e+00
1
Step 150000
Ar 9.174855e-01 0.000000e+00 0.000000e+00
1
Step 151000
Ar 8.793898e-01 0.000000e+00 0.000000e+00
1
Step 152000
Ar 7.920877e-01 0.000000e+00 0.000000e+00
1
Step 153000
Ar 1.087604e+00 0.000000e+00 0.000000e+00
1
Step 154000
Ar 1.064166e+00 0.000000e+00 0.000000e+00
1
Step 155000
Ar 1.030608e+00 0.000000e+00 0.000000e+00
1
Step 156000
Ar 1.006196e+00 0.000000e+00 0.000000e+00
1
Step 157000
Ar 9.063140e-01 0.000000e+00 0.000000e+00
1
Step 158000
Ar 1.025715e+00 0.000000e+00 0.000000e+00
1
Step 159000
Ar 9.497143e-01 0.000000e+00 0.000000e+00
1
Step 160000
Ar 1.013140e+00 0.000000e+00 0.000000e+00
1
Step 161000
Ar 8.565503e-01 0.000000e+00 0.000000e+00
1
Step 162000
Ar 8.078440e-01 0.000000e+00 0.000000e+00
1
Step 163000
Ar 9.140441e-01 0.000000e+00 0.000000e+00
1
Step 164000
Ar 9.924230e-01 0.000000e+00 0.000000e+00
1
Step 165000
Ar 8.999549e-01 0.000000e+00 0.000000e+00
1
Step 166000
Ar 1.160515e+00 0.000000e+00 0.000000e+00
1
Step 167000
Ar 1.052360e+00 0.000000e+00 0.000000e+00
1
Step 168000
Ar 9.570148e-01 0.000000e+00 0.000000e+00
1
Step 169000
Ar 7.767584e-01 0.000000e+00 0.000000e+00
1
Step 170000
Ar 8.807089e-01 0.000000e+00 0.000000e+00
1
Step 171000
Ar 1.013530e+00 0.000000e+00 0.000000e+00
1
Step 172000
Ar 8.476611e-01 0.000000e+00 0.000000e+00
1
Step 173000
Ar 9.532493e-01 0.000000e+00 0.000000e+00
1
Step 174000
Ar 9.389605e-01 0.000000e+00 0.000000e+00
1
Step 175000
Ar 8.999162e-01 0.000000e+00 0.000000e+00
1
Step 176000
Ar 9.988555e-01 0.000000e+00 0.000000e+00
1
Step 177000
Ar 1.078338e+00 0.000000e+00 0.000000e+00
1
Step 178000
Ar 8.509334e-01 0.000000e+00 0.000000e+00
1
Step 179000
Ar 9.979440e-01 0.000000e+00 0.000000e+00
1
Step 180000
Ar 1.087655e+00 0.000000e+00 0.000000e+00
1
Step 181000
Ar 1.028533e+00 0.000000e+00 0.000000e+00
1
Step 182000
Ar 1.160310e+00 0.000000e+00 0.000000e+00
1
Step 183000
Ar 8.632884e-01 0.000000e+00 0.000000e+00
1
Step 184000
Ar 1.012465e+00 0.000000e+00 0.000000e+00
1
Step 185000
Ar 1.107768e+00 0.000000e+00 0.000000e+00
1
Step 186000
Ar 8.327842e-01 0.000000e+00 0.000000e+00
1
Step 187000
Ar 8.533832e-01 0.000000e+00 0.000000e+00
1
Step 188000
Ar 9.062377e-01 0.000000e+00 0.000000e+00
1
Step 189000
Ar 1.041950e+00 0.000000e+00 0.000000e+00
1
Step 190000
Ar 7.152893e-01 0.000000e+00 0.000000e+00
1
Step 191000
Ar 1.082209e+00 0.000000e+00 0.000000e+00
1
Step 192000
Ar 1.077093e+00 0.000000e+00 0.000000e+00
1
Step 193000
Ar 1.110135e+00 0.000000e+00 0.000000e+00
1
Step 194000
Ar 1.044337e+00 0.000000e+00 0.000000e+00
1
Step 195000
Ar 1.021973e+00 0.000000e+00 0.000000e+00
1
Step 196000
Ar 9.074288e-01 0.000000e+00 0.000000e+00
1
Step 197000
Ar 8.714755e-01 0.000000e+00 0.000000e+00
1
Step 198000
Ar 1.067012e+00 0.000000e+00 0.000000e+00
1
Step 199000
Ar 9.080912e-01 0.000000e+00 0.000000e+00
1
Step 200000
Ar 9.997106e-01 0.000000e+00 0.000000e+00
1
Step 201000
Ar 9.443020e-01 0.000000e+00 0.000000e+00
1
Step 202000
Ar 9.739848e-01 0.000000e+00 0.000000e+00
1
Step 203000
Ar 1.071428e+00 0.000000e+00 0.000000e+00
1
Step 204000
Ar 1.257693e+00 0.000000e+00 0.000000e+00
1
Step 205000
Ar 1.122415e+00 0.000000e+00 0.000000e+00
1
Step 206000
Ar 1.187708e+00 0.000000e+00 0.000000e+00
1
Step 207000
Ar 8.912760e-01 0.000000e+00 0.000000e+00
1
Step 208000
Ar 8.908461e-01 0.000000e+00 0.000000e+00
1
Step 209000
Ar 1.166478e+00 0.000000e+00 0.000000e+00
1
Step 210000
Ar 1.104091e+00 0.000000e+00 0.000000e+00
1
Step 211000
Ar 1.105507e+00 0.000000e+00 0.000000e+00
1
Step 212000
Ar 7.723788e-01 0.000000e+00 0.000000e+00
1
Step 213000
Ar 9.424930e-01 0.000000e+00 0.000000e+00
1
Step 214000
Ar 1.114607e+00 0.000000e+00 0.000000e+00
1
Step 215000
Ar 1.010315e+00 0.000000e+00 0.000000e+00
1
Step 216000
Ar 1.088391e+00 0.000000e+00 0.000000e+00
1
Step 217000
Ar 6.223405e-01 0.000000e+00 0.000000e+00
1
Step 218000
Ar 9.514713e-01 0.000000e+00 0.000000e+00
1
Step 219000
Ar 8.998691e-01 0.000000e+00 0.000000e+00
1
Step 220000
Ar 1.077609e+00 0.000000e+00 0.000000e+00
1
Step 221000
Ar 1.080271e+00 0.000000e+00 0.000000e+00
1
Step 222000
Ar 9.483277e-01 0.000000e+00 0.000000e+00
1
Step 223000
Ar 8.928362e-01 0.000000e+00 0.000000e+00
1
Step 224000
Ar 8.553502e-01 0.000000e+00 0.000000e+00
1
Step 225000
Ar 9.295377e-01 0.000000e+00 0.000000e+00
1
Step 226000
Ar 1.090166e+00 0.000000e+00 0.000000e+00
1
Step 227000
Ar 1.133191e+00 0.000000e+00 0.000000e+00
1
Step 228000
Ar 9.132860e-01 0.000000e+00 0.000000e+00
1
Step 229000
Ar 8.779994e-01 0.000000e+00 0.000000e+00
1
Step 230000
Ar 8.365050e-01 0.000000e+00 0.000000e+00
1
Step 231000
Ar 8.696462e-01 0.000000e+00 0.000000e+00
1
Step 232000
Ar 8.138743e-01 0.000000e+00 0.000000e+00
1
Step 233000
Ar 1.021383e+00 0.000000e+00 0.000000e+00
1
Step 234000
Ar 1.145762e+00 0.000000e+00 0.000000e+00
1
Step 235000
Ar 1.043801e+00 0.000000e+00 0.000000e+00
1
Step 236000
Ar 1.109478e+00 0.000000e+00 0.000000e+00
1
Step 237000
Ar 1.035527e+00 0.000000e+00 0.000000e+00
1
Step 238000
Ar 1.047375e+00 0.000000e+00 0.000000e+00
1
Step 239000
Ar 8.208157e-01 0.000000e+00 0.000000e+00
1
Step 240000
Ar 9.750071e-01 0.000000e+00 0.000000e+00
1
Step 241000
Ar 9.441736e-01 0.000000e+00 0.000000e+00
1
Step 242000
Ar 9.593142e-01 0.000000e+00 0.000000e+00
1
Step 243000
Ar 9.267314e-01 0.000000e+00 0.000000e+00
1
Step 244000
Ar 1.078304e+00 0.000000e+00 0.000000e+00
1
Step 245000
Ar 1.106419e+00 0.000000e+00 0.000000e+00
1
Step 246000
Ar 1.031905e+00 0.000000e+00 0.000000e+00
1
Step 247000
Ar 1.048797e+00 0.000000e+00 0.000000e+00
1
Step 248000
Ar 1.007189e+00 0.000000e+00 0.000000e+00
1
Step 249000
Ar 1.035797e+00 0.000000e+00 0.000000e+00
1
Step 250000
Ar 9.576901e-01 0.000000e+00 0.000000e+00
1
Step 251000
Ar 1.196112e+00 0.000000e+00 0.000000e+00
1
Step 252000
Ar 1.061881e+00 0.000000e+00 0.000000e+00
1
Step 253000
Ar 8.578246e-01 0.000000e+00 0.000000e+00
1
Step 254000
Ar 8.923620e-01 0.000000e+00 0.000000e+00
1
Step 255000
Ar 9.833885e-01 0.000000e+00 0.000000e+00
1
Step 256000
Ar 8.736002e-01 0.000000e+00 0.000000e+00
1
Step 257000
Ar 1.030200e+00 0.000000e+00 0.000000e+00
1
Step 258000
Ar 9.552813e-01 0.000000e+00 0.000000e+00
1
Step 259000
Ar 1.008171e+00 0.000000e+00 0.000000e+00
1
Step 260000
Ar 1.124962e+00 0.000000e+00 0.000000e+00
1
Step 261000
Ar 1.066745e+00 0.000000e+00 0.000000e+00
1
Step 262000
Ar 1.124066e+00 0.000000e+00 0.000000e+00
1
Step 263000
Ar 1.055488e+00 0.000000e+00 0.000000e+00
1
Step 264000
Ar 8.210914e-01 0.000000e+00 0.000000e+00
1
Step 265000
Ar 1.024064e+00 0.000000e+00 0.000000e+00
1
Step 266000
Ar 9.730251e-01 0.000000e+00 0.000000e+00
1
Step 267000
Ar 1.023413e+00 0.000000e+00 0.000000e+00
1
Step 268000
Ar 9.404357e-01 0.000000e+00 0.000000e+00
1
Step 269000
Ar 1.054814e+00 0.000000e+00 0.000000e+00
1
Step 270000
Ar 8.575711e-01 0.000000e+00 0.000000e+00
1
Step 271000
Ar 8.949589e-01 0.000000e+00 0.000000e+00
1
Step 272000
Ar 9.030427e-01 0.000000e+00 0.000000e+00
1
Step 273000
Ar 1.078569e+00 0.000000e+00 0.000000e+00
1
Step 274000
Ar 1.064983e+00 0.000000e+00 0.000000e+00
1
Step 275000
Ar 8.286230e-01 0.000000e+00 0.000000e+00
1
Step 276000
Ar 1.127501e+00 0.000000e+00 0.000000e+00
1
Step 277000
Ar 1.033892e+00 0.000000e+00 0.000000e+00
1
Step 278000
Ar 1.050786e+00 0.000000e+00 0.000000e+00
1
Step 279000
Ar 8.499602e-01 0.000000e+00 0.000000e+00
1
Step 280000
Ar 9.749848e-01 0.000000e+00 0.000000e+00
1
Step 281000
Ar 1.066182e+00 0.000000e+00 0.000000e+00
1
Step 282000
Ar 1.110185e+00 0.000000e+00 0.000000e+00
1
Step 283000
Ar 1.188381e+00 0.000000e+00 0.000000e+00
1
Step 284000
Ar 8.182830e-01 0.000000e+00 0.000000e+00
1
Step 285000
Ar 9.679500e-01 0.000000e+00 0.000000e+00
1
Step 286000
Ar 1.227423e+00 0.000000e+00 0.000000e+00
1
Step 287000
Ar 9.878091e-01 0.000000e+00 0.000000e+00
1
Step 288000
Ar 1.018571e+00 0.000000e+00 0.000000e+00
1
Step 289000
Ar 1.105628e+00 0.000000e+00 0.000000e+00
1
Step 290000
Ar 1.006567e+00 0.000000e+00 0.000000e+00
1
Step 291000
Ar 9.307955e-01 0.000000e+00 0.000000e+00
1
Step 292000
Ar 8.380006e-01 0.000000e+00 0.000000e+00
1
Step 293000
Ar 9.941312e-01 0.000000e+00 0.000000e+00
1
Step 294000
Ar 8.226468e-01 0.000000e+00 0.000000e+00
1
Step 295000
Ar 9.496686e-01 0.000000e+00 0.000000e+00
1
Step 296000
Ar 9.725169e-01 0.000000e+00 0.000000e+00
1
Step 297000
Ar 8.992489e-01 0.000000e+00 0.000000e+00
1
Step 298000
Ar 1.000339e+00 0.000000e+00 0.000000e+00
1
Step 299000
Ar 7.532369e-01 0.000000e+00 0.000000e+00
1
Step 300000
Ar 9.252014e-01 0.000000e+00 0.000000e+00
1
Step 301000
Ar 1.013174e+00 0.000000e+00 0.000000e+00
1
Step 302000
Ar 9.938153e-01 0.000000e+00 0.000000e+00
1
Step 303000
Ar 9.132300e-01 0.000000e+00 0.000000e+00
1
Step 304000
Ar 8.945273e-01 0.000000e+00 0.000000e+00
1
Step 305000
Ar 9.187204e-01 0.000000e+00 0.000000e+00
1
Step 306000
Ar 9.673848e-01 0.000000e+00 0.000000e+00
1
Step 307000
Ar 9.732872e-01 0.000000e+00 0.000000e+00
1
Step 308000
Ar 1.117804e+00 0.000000e+00 0.000000e+00
1
Step 309000
Ar 8.626304e-01 0.000000e+00 0.000000e+00
1
Step 310000
Ar 9.447126e-01 0.000000e+00 0.000000e+00
1
Step 311000
Ar 1.099413e+00 0.000000e+00 0.000000e+00
1
Step 312000
Ar 1.063812e+00 0.000000e+00 0.000000e+00
1
Step 313000
Ar 1.031059e+00 0.000000e+00 0.000000e+00
1
Step 314000
Ar 7.960324e-01 0.000000e+00 0.000000e+00
1
Step 315000
Ar 9.918187e-01 0.000000e+00 0.000000e+00
1
Step 316000
Ar 1.053229e+00 0.000000e+00 0.000000e+00
1
Step 317000
Ar 1.008146e+00 0.000000e+00 0.000000e+00
1
Step 318000
Ar 1.097453e+00 0.000000e+00 0.000000e+00
1
Step 319000
Ar 9.671584e-01 0.000000e+00 0.000000e+00
1
Step 320000
Ar 9.125633e-01 0.000000e+00 0.000000e+00
1
Step 321000
Ar 9.049167e-01 0.000000e+00 0.000000e+00
1
Step 322000
Ar 1.201297e+00 0.000000e+00 0.000000e+00
1
Step 323000
Ar 1.029214e+00 0.000000e+00 0.000000e+00
1
Step 324000
Ar 7.854901e-01 0.000000e+00 0.000000e+00
1
Step 325000
Ar 1.107520e+00 0.000000e+00 0.000000e+00
1
Step 326000
Ar 1.042599e+00 0.000000e+00 0.000000e+00
1
Step 327000
Ar 9.634449e-01 0.000000e+00 0.000000e+00
1
Step 328000
Ar 1.052832e+00 0.000000e+00 0.000000e+00
1
Step 329000
Ar 1.031942e+00 0.000000e+00 0.000000e+00
1
Step 330000
Ar 1.033591e+00 0.000000e+00 0.000000e+00
1
Step 331000
Ar 9.059620e-01 0.000000e+00 0.000000e+00
1
Step 332000
Ar 8.528191e-01 0.000000e+00 0.000000e+00
1
Step 333000
Ar 9.656094e-01 0.000000e+00 0.000000e+00
1
Step 334000
Ar 1.163914e+00 0.000000e+00 0.000000e+00
1
Step 335000
Ar 1.068488e+00 0.000000e+00 0.000000e+00
1
Step 336000
Ar 1.192553e+00 0.000000e+00 0.000000e+00
1
Step 337000
Ar 9.031059e-01 0.000000e+00 0.000000e+00
1
Step 338000
Ar 1.008734e+00 0.000000e+00 0.000000e+00
1
Step 339000
Ar 1.021982e+00 0.000000e+00 0.000000e+00
1
Step 340000
Ar 1.083236e+00 0.000000e+00 0.000000e+00
1
Step 341000
Ar 9.110788e-01 0.000000e+00 0.000000e+00
1
Step 342000
Ar 1.173929e+00 0.000000e+00 0.000000e+00
1
Step 343000
Ar 8.255566e-01 0.000000e+00 0.000000e+00
1
Step 344000
Ar 9.116594e-01 0.000000e+00 0.000000e+00
1
Step 345000
Ar 9.779977e-01 0.000000e+00 0.000000e+00
1
Step 346000
Ar 1.284405e+00 0.000000e+00 0.000000e+00
1
Step 347000
Ar 1.049880e+00 0.000000e+00 0.000000e+00
1
Step 348000
Ar 1.053210e+00 0.000000e+00 0.000000e+00
1
Step 349000
Ar 1.037461e+00 0.000000e+00 0.000000e+00
1
Step 350000
Ar 1.134505e+00 0.000000e+00 0.000000e+00
1
Step 351000
Ar 9.626536e-01 0.000000e+00 0.000000e+00
1
Step 352000
Ar 1.073429e+00 0.000000e+00 0.000000e+00
1
Step 353000
Ar 1.009048e+00 0.000000e+00 0.000000e+00
1
Step 354000
Ar 9.780819e-01 0.000000e+00 0.000000e+00
1
Step 355000
Ar 1.111132e+00 0.000000e+00 0.000000e+00
1
Step 356000
Ar 8.168793e-01 0.000000e+00 0.000000e+00
1
Step 357000
Ar 1.095466e+00 0.000000e+00 0.000000e+00
1
Step 358000
Ar 9.743064e-01 0.000000e+00 0.000000e+00
1
Step 359000
Ar 8.672380e-01 0.000000e+00 0.000000e+00
1
Step 360000
Ar 9.259501e-01 0.000000e+00 0.000000e+00
1
Step 361000
Ar 9.710961e-01 0.000000e+00 0.000000e+00
1
Step 362000
Ar 8.235455e-01 0.000000e+00 0.000000e+00
1
Step 363000
Ar 9.754110e-01 0.000000e+00 0.000000e+00
1
Step 364000
Ar 1.091771e+00 0.000000e+00 0.000000e+00
1
Step 365000
Ar 1.078002e+00 0.000000e+00 0.000000e+00
1
Step 366000
Ar 8.715693e-01 0.000000e+00 0.000000e+00
1
Step 367000
Ar 8.796529e-01 0.000000e+00 0.000000e+00
1
Step 368000
Ar 9.362888e-01 0.000000e+00 0.000000e+00
1
Step 369000
Ar 1.064553e+00 0.000000e+00 0.000000e+00
1
Step 370000
Ar 9.671375e-01 0.000000e+00 0.000000e+00
1
Step 371000
Ar 9.762926e-01 0.000000e+00 0.000000e+00
1
Step 372000
Ar 9.149416e-01 0.000000e+00 0.000000e+00
1
Step 373000
Ar 1.097164e+00 0.000000e+00 0.000000e+00
1
Step 374000
Ar 8.858572e-01 0.000000e+00 0.000000e+00
1
Step 375000
Ar 1.056772e+00 0.000000e+00 0.000000e+00
1
Step 376000
Ar 9.646156e-01 0.000000e+00 0.000000e+00
1
Step 377000
Ar 9.360995e-01 0.000000e+00 0.000000e+00
1
Step 378000
Ar 8.894182e-01 0.000000e+00 0.000000e+00
1
Step 379000
Ar 1.068902e+00 0.000000e+00 0.000000e+00
1
Step 380000
Ar 9.959985e-01 0.000000e+00 0.000000e+00
1
Step 381000
Ar 9.045967e-01 0.000000e+00 0.000000e+00
1
Step 382000
Ar 9.853486e-01 0.000000e+00 0.000000e+00
1
Step 383000
Ar 9.105435e-01 0.000000e+00 0.000000e+00
1
Step 384000
Ar 9.183928e-01 0.000000e+00 0.000000e+00
1
Step 385000
Ar 9.292144e-01 0.000000e+00 0.000000e+00
1
Step 386000
Ar 9.151937e-01 0.000000e+00 0.000000e+00
1
Step 387000
Ar 9.434430e-01 0.000000e+00 0.000000e+00
1
Step 388000
Ar 8.240356e-01 0.000000e+00 0.000000e+00
1
Step 389000
Ar 8.437258e-01 0.000000e+00 0.000000e+00
1
Step 390000
Ar 1.016859e+00 0.000000e+00 0.000000e+00
1
Step 391000
Ar 7.497897e-01 0.000000e+00 0.000000e+00
1
Step 392000
Ar 9.669871e-01 0.000000e+00 0.000000e+00
1
Step 393000
Ar 9.970621e-01 0.000000e+00 0.000000e+00
1
Step 394000
Ar 1.031912e+00 0.000000e+00 0.000000e+00
1
Step 395000
Ar 1.022437e+00 0.000000e+00 0.000000e+00
1
Step 396000
Ar 9.111854e-01 0.000000e+00 0.000000e+00
1
Step 397000
Ar 6.524878e-01 0.000000e+00 0.000000e+00
1
Step 398000
Ar 9.594680e-01 0.000000e+00 0.000000e+00
1
Step 399000
Ar 1.001209e+00 0.000000e+00 0.000000e+00
1
Step 400000
Ar 9.025151e-01 0.000000e+00 0.000000e+00
1
Step 401000
Ar 1.061686e+00 0.000000e+00 0.000000e+00
1
Step 402000
Ar 8.367041e-01 0.000000e+00 0.000000e+00
1
Step 403000
Ar 1.133432e+00 0.000000e+00 0.000000e+00
1
Step 404000
Ar 8.780831e-01 0.000000e+00 0.000000e+00
1
Step 405000
Ar 1.061599e+00 0.000000e+00 0.000000e+00
1
Step 406000
Ar 9.653429e-01 0.000000e+00 0.000000e+00
1
Step 407000
Ar 1.176304e+00 0.000000e+00 0.000000e+00
1
Step 408000
Ar 1.135593e+00 0.000000e+00 0.000000e+00
1
Step 409000
Ar 8.904391e-01 0.000000e+00 0.000000e+00
1
Step 410000
Ar 8.637184e-01 0.000000e+00 0.000000e+00
1
Step 411000
Ar 9.564072e-01 0.000000e+00 0.000000e+00
1
Step 412000
Ar 1.217504e+00 0.000000e+00 0.000000e+00
1
Step 413000
Ar 1.065097e+00 0.000000e+00 0.000000e+00
1
Step 414000
Ar 1.075337e+00 0.000000e+00 0.000000e+00
1
Step 415000
Ar 1.006533e+00 0.000000e+00 0.000000e+00
1
Step 416000
Ar 1.071036e+00 0.000000e+00 0.000000e+00
1
Step 417000
Ar 8.597627e-01 0.000000e+00 0.000000e+00
1
Step 418000
Ar 9.990115e-01 0.000000e+00 0.000000e+00
1
Step 419000
Ar 8.319265e-01 0.000000e+00 0.000000e+00
1
Step 420000
Ar 8.372695e-01 0.000000e+00 0.000000e+00
1
Step 421000
Ar 1.192241e+00 0.000000e+00 0.000000e+00
1
Step 422000
Ar 1.111746e+00 0.000000e+00 0.000000e+00
1
Step 423000
Ar 8.430405e-01 0.000000e+00 0.000000e+00
1
Step 424000
Ar 6.837434e-01 0.000000e+00 0.000000e+00
1
Step 425000
Ar 1.082643e+00 0.000000e+00 0.000000e+00
1
Step 426000
Ar 9.193414e-01 0.000000e+00 0.000000e+00
1
Step 427000
Ar 9.629268e-01 0.000000e+00 0.000000e+00
1
Step 428000
Ar 1.106370e+00 0.000000e+00 0.000000e+00
1
Step 429000
Ar 1.184491e+00 0.000000e+00 0.000000e+00
1
Step 430000
Ar 9.257545e-01 0.000000e+00 0.000000e+00
1
Step 431000
Ar 1.047102e+00 0.000000e+00 0.000000e+00
1
Step 432000
Ar 8.905510e-01 0.000000e+00 0.000000e+00
1
Step 433000
Ar 8.108975e-01 0.000000e+00 0.000000e+00
1
Step 434000
Ar 1.068432e+00 0.000000e+00 0.000000e+00
1
Step 435000
Ar 1.102229e+00 0.000000e+00 0.000000e+00
1
Step 436000
Ar 1.241176e+00 0.000000e+00 0.000000e+00
1
Step 437000
Ar 1.004769e+00 0.000000e+00 0.000000e+00
1
Step 438000
Ar 1.083578e+00 0.000000e+00 0.000000e+00
1
Step 439000
Ar 8.029813e-01 0.000000e+00 0.000000e+00
1
Step 440000
Ar 9.177476e-01 0.000000e+00 0.000000e+00
1
Step 441000
Ar 9.412252e-01 0.000000e+00 0.000000e+00
1
Step 442000
Ar 9.267968e-01 0.000000e+00 0.000000e+00
1
Step 443000
Ar 8.891348e-01 0.000000e+00 0.000000e+00
1
Step 444000
Ar 1.066162e+00 0.000000e+00 0.000000e+00
1
Step 445000
Ar 1.040304e+00 0.000000e+00 0.000000e+00
1
Step 446000
Ar 1.043683e+00 0.000000e+00 0.000000e+00
1
Step 447000
Ar 1.041959e+00 0.000000e+00 0.000000e+00
1
Step 448000
Ar 1.059811e+00 0.000000e+00 0.000000e+00
1
Step 449000
Ar 9.017538e-01 0.000000e+00 0.000000e+00
1
Step 450000
Ar 9.882593e-01 0.000000e+00 0.000000e+00
1
Step 451000
Ar 8.415344e-01 0.000000e+00 0.000000e+00
1
Step 452000
Ar 9.841725e-01 0.000000e+00 0.000000e+00
1
Step 453000
Ar 1.166011e+00 0.000000e+00 0.000000e+00
1
Step 454000
Ar 7.151721e-01 0.000000e+00 0.000000e+00
1
Step 455000
Ar 1.046978e+00 0.000000e+00 0.000000e+00
1
Step 456000
Ar 8.835269e-01 0.000000e+00 0.000000e+00
1
Step 457000
Ar 1.180799e+00 0.000000e+00 0.000000e+00
1
Step 458000
Ar 9.041071e-01 0.000000e+00 0.000000e+00
1
Step 459000
Ar 1.194825e+00 0.000000e+00 0.000000e+00
1
Step 460000
Ar 1.055950e+00 0.000000e+00 0.000000e+00
1
Step 461000
Ar 8.054030e-01 0.000000e+00 0.000000e+00
1
Step 462000
Ar 9.430194e-01 0.000000e+00 0.000000e+00
1
Step 463000
Ar 1.021000e+00 0.000000e+00 0.000000e+00
1
Step 464000
Ar 9.646562e-01 0.000000e+00 0.000000e+00
1
Step 465000
Ar 9.047090e-01 0.000000e+00 0.000000e+00
1
Step 466000
Ar 9.077448e-01 0.000000e+00 0.000000e+00
1
Step 467000
Ar 1.104121e+00 0.000000e+00 0.000000e+00
1
Step 468000
Ar 8.292983e-01 0.000000e+00 0.000000e+00
1
Step 469000
Ar 1.031955e+00 0.000000e+00 0.000000e+00
1
Step 470000
Ar 8.550453e-01 0.000000e+00 0.000000e+00
1
Step 471000
Ar 9.942145e-01 0.000000e+00 0.000000e+00
1
Step 472000
Ar 8.934914e-01 0.000000e+00 0.000000e+00
1
Step 473000
Ar 9.435808e-01 0.000000e+00 0.000000e+00
1
Step 474000
Ar 1.016309e+00 0.000000e+00 0.000000e+00
1
Step 475000
Ar 9.560341e-01 0.000000e+00 0.000000e+00
1
Step 476000
Ar 1.292342e+00 0.000000e+00 0.000000e+00
1
Step 477000
Ar 1.191187e+00 0.000000e+00 0.000000e+00
1
Step 478000
Ar 8.279694e-01 0.000000e+00 0.000000e+00
1
Step 479000
Ar 1.146474e+00 0.000000e+00 0.000000e+00
1
Step 480000
Ar 1.073779e+00 0.000000e+00 0.000000e+00
1
Step 481000
Ar 8.467920e-01 0.000000e+00 0.000000e+00
1
Step 482000
Ar 1.049014e+00 0.000000e+00 0.000000e+00
1
Step 483000
Ar 9.334658e-01 0.000000e+00 0.000000e+00
1
Step 484000
Ar 9.514830e-01 0.000000e+00 0.000000e+00
1
Step 485000
Ar 9.535094e-01 0.000000e+00 0.000000e+00
1
Step 486000
Ar 1.289140e+00 0.000000e+00 0.000000e+00
1
Step 487000
Ar 1.007163e+00 0.000000e+00 0.000000e+00
1
Step 488000
Ar 8.328583e-01 0.000000e+00 0.000000e+00
1
Step 489000
Ar 9.585805e-01 0.000000e+00 0.000000e+00
1
Step 490000
Ar 1.146200e+00 0.000000e+00 0.000000e+00
1
Step 491000
Ar 1.084870e+00 0.000000e+00 0.000000e+00
1
Step 492000
Ar 9.629125e-01 0.000000e+00 0.000000e+00
1
Step 493000
Ar 9.513271e-01 0.000000e+00 0.000000e+00
1
Step 494000
Ar 1.184999e+00 0.000000e+00 0.000000e+00
1
Step 495000
Ar 9.032152e-01 0.000000e+00 0.000000e+00
1
Step 496000
Ar 9.153736e-01 0.000000e+00 0.000000e+00
1
Step 497000
Ar 9.249240e-01 0.000000e+00 0.000000e+00
1
Step 498000
Ar 9.871045e-01 0.000000e+00 0.000000e+00
1
Step 499000
Ar 1.033555e+00 0.000000e+00 0.000000e+00
1
Step 500000
Ar 9.716097e-01 0.000000e+00 0.000000e+00
1
Step 501000
Ar 9.832750e-01 0.000000e+00 0.000000e+00
1
Step 502000
Ar 9.211316e-01 0.000000e+00 0.000000e+00
1
Step 503000
Ar 9.936641e-01 0.000000e+00 0.000000e+00
1
Step 504000
Ar 1.068964e+00 0.000000e+00 0.000000e+00
1
Step 505000
Ar 1.010675e+00 0.000000e+00 0.000000e+00
1
Step 506000
Ar 9.835602e-01 0.000000e+00 0.000000e+00
1
Step 507000
Ar 9.872307e-01 0.000000e+00 0.000000e+00
1
Step 508000
Ar 1.003755e+00 0.000000e+00 0.000000e+00
1
Step 509000
Ar 8.076044e-01 0.000000e+00 0.000000e+00
1
Step 510000
Ar 1.086648e+00 0.000000e+00 0.000000e+00
1
Step 511000
Ar 9.342326e-01 0.000000e+00 0.000000e+00
1
Step 512000
Ar 1.109487e+00 0.000000e+00 0.000000e+00
1
Step 513000
Ar 9.893684e-01 0.000000e+00 0.000000e+00
1
Step 514000
Ar 1.014070e+00 0.000000e+00 0.000000e+00
1
Step 515000
Ar 1.069326e+00 0.000000e+00 0.000000e+00
1
Step 516000
Ar 8.857699e-01 0.000000e+00 0.000000e+00
1
Step 517000
Ar 1.079830e+00 0.000000e+00 0.000000e+00
1
Step 518000
Ar 9.556845e-01 0.000000e+00 0.000000e+00
1
Step 519000
Ar 1.086864e+00 0.000000e+00 0.000000e+00
1
Step 520000
Ar 1.064525e+00 0.000000e+00 0.000000e+00
1
Step 521000
Ar 8.075734e-01 0.000000e+00 0.000000e+00
1
Step 522000
Ar 1.160328e+00 0.000000e+00 0.000000e+00
1
Step 523000
Ar 9.254679e-01 0.000000e+00 0.000000e+00
1
Step 524000
Ar 1.034254e+00 0.000000e+00 0.000000e+00
1
Step 525000
Ar 1.053331e+00 0.000000e+00 0.000000e+00
1
Step 526000
Ar 6.810507e-01 0.000000e+00 0.000000e+00
1
Step 527000
Ar 1.091985e+00 0.000000e+00 0.000000e+00
1
Step 528000
Ar 9.534935e-01 0.000000e+00 0.000000e+00
1
Step 529000
Ar 1.095801e+00 0.000000e+00 0.000000e+00
1
Step 530000
Ar 7.586830e-01 0.000000e+00 0.000000e+00
1
Step 531000
Ar 9.219362e-01 0.000000e+00 0.000000e+00
1
Step 532000
Ar 1.178696e+00 0.000000e+00 0.000000e+00
1
Step 533000
Ar 1.028296e+00 0.000000e+00 0.000000e+00
1
Step 534000
Ar 9.935339e-01 0.000000e+00 0.000000e+00
1
Step 535000
Ar 1.086882e+00 0.000000e+00 0.000000e+00
1
Step 536000
Ar 9.175185e-01 0.000000e+00 0.000000e+00
1
Step 537000
Ar 9.977978e-01 0.000000e+00 0.000000e+00
1
Step 538000
Ar 9.783040e-01 0.000000e+00 0.000000e+00
1
Step 539000
Ar 9.122863e-01 0.000000e+00 0.000000e+00
1
Step 540000
Ar 1.025586e+00 0.000000e+00 0.000000e+00
1
Step 541000
Ar 1.050503e+00 0.000000e+00 0.000000e+00
1
Step 542000
Ar 1.014900e+00 0.000000e+00 0.000000e+00
1
Step 543000
Ar 1.032049e+00 0.000000e+00 0.000000e+00
1
Step 544000
Ar 9.848092e-01 0.000000e+00 0.000000e+00
1
Step 545000
Ar 9.535692e-01 0.000000e+00 0.000000e+00
1
Step 546000
Ar 1.081445e+00 0.000000e+00 0.000000e+00
1
Step 547000
Ar 9.879933e-01 0.000000e+00 0.000000e+00
1
Step 548000
Ar 1.141974e+00 0.000000e+00 0.000000e+00
1
Step 549000
Ar 8.802218e-01 0.000000e+00 0.000000e+00
1
Step 550000
Ar 8.204310e-01 0.000000e+00 0.000000e+00
1
Step 551000
Ar 1.044501e+00 0.000000e+00 0.000000e+00
1
Step 552000
Ar 1.028429e+00 0.000000e+00 0.000000e+00
1
Step 553000
Ar 1.055894e+00 0.000000e+00 0.000000e+00
1
Step 554000
Ar 7.366636e-01 0.000000e+00 0.000000e+00
1
Step 555000
Ar 9.020180e-01 0.000000e+00 0.000000e+00
1
Step 556000
Ar 1.028286e+00 0.000000e+00 0.000000e+00
1
Step 557000
Ar 8.682194e-01 0.000000e+00 0.000000e+00
1
Step 558000
Ar 1.339653e+00 0.000000e+00 0.000000e+00
1
Step 559000
Ar 9.859720e-01 0.000000e+00 0.000000e+00
1
Step 560000
Ar 9.534230e-01 0.000000e+00 0.000000e+00
1
Step 561000
Ar 1.077019e+00 0.000000e+00 0.000000e+00
1
Step 562000
Ar 1.108127e+00 0.000000e+00 0.000000e+00
1
Step 563000
Ar 9.853365e-01 0.000000e+00 0.000000e+00
1
Step 564000
Ar 1.043325e+00 0.000000e+00 0.000000e+00
1
Step 565000
Ar 1.059496e+00 0.000000e+00 0.000000e+00
1
Step 566000
Ar 8.678296e-01 0.000000e+00 0.000000e+00
1
Step 567000
Ar 1.049623e+00 0.000000e+00 0.000000e+00
1
Step 568000
Ar 9.022459e-01 0.000000e+00 0.000000e+00
1
Step 569000
Ar 1.031006e+00 0.000000e+00 0.000000e+00
1
Step 570000
Ar 1.049141e+00 0.000000e+00 0.000000e+00
1
Step 571000
Ar 1.119551e+00 0.000000e+00 0.000000e+00
1
Step 572000
Ar 1.060164e+00 0.000000e+00 0.000000e+00
1
Step 573000
Ar 1.065083e+00 0.000000e+00 0.000000e+00
1
Step 574000
Ar 7.177371e-01 0.000000e+00 0.000000e+00
1
Step 575000
Ar 1.051475e+00 0.000000e+00 0.000000e+00
1
Step 576000
Ar 9.670466e-01 0.000000e+00 0.000000e+00
1
Step 577000
Ar 9.983218e-01 0.000000e+00 0.000000e+00
1
Step 578000
Ar 1.035314e+00 0.000000e+00 0.000000e+00
1
Step 579000
Ar 8.935668e-01 0.000000e+00 0.000000e+00
1
Step 580000
Ar 7.187407e-01 0.000000e+00 0.000000e+00
1
Step 581000
Ar 9.395686e-01 0.000000e+00 0.000000e+00
1
Step 582000
Ar 9.474144e-01 0.000000e+00 0.000000e+00
1
Step 583000
Ar 1.084244e+00 0.000000e+00 0.000000e+00
1
Step 584000
Ar 9.434665e-01 0.000000e+00 0.000000e+00
1
Step 585000
Ar 1.010009e+00 0.000000e+00 0.000000e+00
1
Step 586000
Ar 8.613398e-01 0.000000e+00 0.000000e+00
1
Step 587000
Ar 8.857265e-01 0.000000e+00 0.000000e+00
1
Step 588000
Ar 8.080447e-01 0.000000e+00 0.000000e+00
1
Step 589000
Ar 9.051119e-01 0.000000e+00 0.000000e+00
1
Step 590000
Ar 9.153593e-01 0.000000e+00 0.000000e+00
1
Step 591000
Ar 9.427434e-01 0.000000e+00 0.000000e+00
1
Step 592000
Ar 1.062146e+00 0.000000e+00 0.000000e+00
1
Step 593000
Ar 8.692606e-01 0.000000e+00 0.000000e+00
1
Step 594000
Ar 8.873370e-01 0.000000e+00 0.000000e+00
1
Step 595000
Ar 1.021705e+00 0.000000e+00 0.000000e+00
1
Step 596000
Ar 1.118140e+00 0.000000e+00 0.000000e+00
1
Step 597000
Ar 1.084137e+00 0.000000e+00 0.000000e+00
1
Step 598000
Ar 1.098728e+00 0.000000e+00 0.000000e+00
1
Step 599000
Ar 8.620819e-01 0.000000e+00 0.000000e+00
1
Step 600000
Ar 9.430155e-01 0.000000e+00 0.000000e+00
1
Step 601000
Ar 1.024152e+00 0.000000e+00 0.000000e+00
1
Step 602000
Ar 7.322165e-01 0.000000e+00 0.000000e+00
1
Step 603000
Ar 1.128860e+00 0.000000e+00 0.000000e+00
1
Step 604000
Ar 7.847099e-01 0.000000e+00 0.000000e+00
1
Step 605000
Ar 1.056239e+00 0.000000e+00 0.000000e+00
1
Step 606000
Ar 8.686564e-01 0.000000e+00 0.000000e+00
1
Step 607000
Ar 9.170961e-01 0.000000e+00 0.000000e+00
1
Step 608000
Ar 9.232261e-01 0.000000e+00 0.000000e+00
1
Step 609000
Ar 7.180183e-01 0.000000e+00 0.000000e+00
1
Step 610000
Ar 1.111038e+00 0.000000e+00 0.000000e+00
1
Step 611000
Ar 8.632416e-01 0.000000e+00 0.000000e+00
1
Step 612000
Ar 9.682765e-01 0.000000e+00 0.000000e+00
1
Step 613000
Ar 8.076488e-01 0.000000e+00 0.000000e+00
1
Step 614000
Ar 1.057796e+00 0.000000e+00 0.000000e+00
1
Step 615000
Ar 1.034036e+00 0.000000e+00 0.000000e+00
1
Step 616000
Ar 7.999471e-01 0.000000e+00 0.000000e+00
1
Step 617000
Ar 9.796584e-01 0.000000e+00 0.000000e+00
1
Step 618000
Ar 8.212805e-01 0.000000e+00 0.000000e+00
1
Step 619000
Ar 9.490764e-01 0.000000e+00 0.000000e+00
1
Step 620000
Ar 8.391647e-01 0.000000e+00 0.000000e+00
1
Step 621000
Ar 8.229804e-01 0.000000e+00 0.000000e+00
1
Step 622000
Ar 1.078241e+00 0.000000e+00 0.000000e+00
1
Step 623000
Ar 1.009556e+00 0.000000e+00 0.000000e+00
1
Step 624000
Ar 1.072024e+00 0.000000e+00 0.000000e+00
1
Step 625000
Ar 1.059397e+00 0.000000e+00 0.000000e+00
1
Step 626000
Ar 1.034712e+00 0.000000e+00 0.000000e+00
1
Step 627000
Ar 9.017241e-01 0.000000e+00 0.000000e+00
1
Step 628000
Ar 8.682625e-01 0.000000e+00 0.000000e+00
1
Step 629000
Ar 8.736921e-01 0.000000e+00 0.000000e+00
1
Step 630000
Ar 9.059867e-01 0.000000e+00 0.000000e+00
1
Step 631000
Ar 1.179871e+00 0.000000e+00 0.000000e+00
1
Step 632000
Ar 1.066925e+00 0.000000e+00 0.000000e+00
1
Step 633000
Ar 9.370977e-01 0.000000e+00 0.000000e+00
1
Step 634000
Ar 1.054900e+00 0.000000e+00 0.000000e+00
1
Step 635000
Ar 9.695240e-01 0.000000e+00 0.000000e+00
1
Step 636000
Ar 9.930617e-01 0.000000e+00 0.000000e+00
1
Step 637000
Ar 9.758211e-01 0.000000e+00 0.000000e+00
1
Step 638000
Ar 9.488772e-01 0.000000e+00 0.000000e+00
1
Step 639000
Ar 1.134476e+00 0.000000e+00 0.000000e+00
1
Step 640000
Ar 7.896839e-01 0.000000e+00 0.000000e+00
1
Step 641000
Ar 9.204210e-01 0.000000e+00 0.000000e+00
1
Step 642000
Ar 1.137311e+00 0.000000e+00 0.000000e+00
1
Step 643000
Ar 1.035868e+00 0.000000e+00 0.000000e+00
1
Step 644000
Ar 9.144673e-01 0.000000e+00 0.000000e+00
1
Step 645000
Ar 9.557483e-01 0.000000e+00 0.000000e+00
1
Step 646000
Ar 1.059474e+00 0.000000e+00 0.000000e+00
1
Step 647000
Ar 1.101435e+00 0.000000e+00 0.000000e+00
1
Step 648000
Ar 1.123510e+00 0.000000e+00 0.000000e+00
1
Step 649000
Ar 1.002905e+00 0.000000e+00 0.000000e+00
1
Step 650000
Ar 9.215507e-01 0.000000e+00 0.000000e+00
1
Step 651000
Ar 7.809314e-01 0.000000e+00 0.000000e+00
1
Step 652000
Ar 1.114268e+00 0.000000e+00 0.000000e+00
1
Step 653000
Ar 8.940684e-01 0.000000e+00 0.000000e+00
1
Step 654000
Ar 7.416222e-01 0.000000e+00 0.000000e+00
1
Step 655000
Ar 6.375727e-01 0.000000e+00 0.000000e+00
1
Step 656000
Ar 8.584786e-01 0.000000e+00 0.000000e+00
1
Step 657000
Ar 9.485687e-01 0.000000e+00 0.000000e+00
1
Step 658000
Ar 1.079857e+00 0.000000e+00 0.000000e+00
1
Step 659000
Ar 9.754849e-01 0.000000e+00 0.000000e+00
1
Step 660000
Ar 9.783257e-01 0.000000e+00 0.000000e+00
1
Step 661000
Ar 9.821463e-01 0.000000e+00 0.000000e+00
1
Step 662000
Ar 9.489893e-01 0.000000e+00 0.000000e+00
1
Step 663000
Ar 1.118413e+00 0.000000e+00 0.000000e+00
1
Step 664000
Ar 1.119569e+00 0.000000e+00 0.000000e+00
1
Step 665000
Ar 1.051347e+00 0.000000e+00 0.000000e+00
1
Step 666000
Ar 8.801254e-01 0.000000e+00 0.000000e+00
1
Step 667000
Ar 8.234363e-01 0.000000e+00 0.000000e+00
1
Step 668000
Ar 1.000719e+00 0.000000e+00 0.000000e+00
1
Step 669000
Ar 4.992024e-01 0.000000e+00 0.000000e+00
1
Step 670000
Ar 9.835047e-01 0.000000e+00 0.000000e+00
1
Step 671000
Ar 9.362694e-01 0.000000e+00 0.000000e+00
1
Step 672000
Ar 1.007866e+00 0.000000e+00 0.000000e+00
1
Step 673000
Ar 7.450074e-01 0.000000e+00 0.000000e+00
1
Step 674000
Ar 8.955974e-01 0.000000e+00 0.000000e+00
1
Step 675000
Ar 7.407064e-01 0.000000e+00 0.000000e+00
1
Step 676000
Ar 1.060395e+00 0.000000e+00 0.000000e+00
1
Step 677000
Ar 1.098930e+00 0.000000e+00 0.000000e+00
1
Step 678000
Ar 8.850825e-01 0.000000e+00 0.000000e+00
1
Step 679000
Ar 9.382558e-01 0.000000e+00 0.000000e+00
1
Step 680000
Ar 9.655960e-01 0.000000e+00 0.000000e+00
1
Step 681000
Ar 1.100231e+00 0.000000e+00 0.000000e+00
1
Step 682000
Ar 1.009719e+00 0.000000e+00 0.000000e+00
1
Step 683000
Ar 1.058150e+00 0.000000e+00 0.000000e+00
1
Step 684000
Ar 9.883301e-01 0.000000e+00 0.000000e+00
1
Step 685000
Ar 8.578653e-01 0.000000e+00 0.000000e+00
1
Step 686000
Ar 8.541444e-01 0.000000e+00 0.000000e+00
1
Step 687000
Ar 9.995725e-01 0.000000e+00 0.000000e+00
1
Step 688000
Ar 9.906505e-01 0.000000e+00 0.000000e+00
1
Step 689000
Ar 9.065609e-01 0.000000e+00 0.000000e+00
1
Step 690000
Ar 1.034609e+00 0.000000e+00 0.000000e+00
1
Step 691000
Ar 1.080651e+00 0.000000e+00 0.000000e+00
1
Step 692000
Ar 9.281292e-01 0.000000e+00 0.000000e+00
1
Step 693000
Ar 8.834996e-01 0.000000e+00 0.000000e+00
1
Step 694000
Ar 9.548783e-01 0.000000e+00 0.000000e+00
1
Step 695000
Ar 1.042221e+00 0.000000e+00 0.000000e+00
1
Step 696000
Ar 1.027375e+00 0.000000e+00 0.000000e+00
1
Step 697000
Ar 1.103772e+00 0.000000e+00 0.000000e+00
1
Step 698000
Ar 1.122678e+00 0.000000e+00 0.000000e+00
1
Step 699000
Ar 9.178720e-01 0.000000e+00 0.000000e+00
1
Step 700000
Ar 9.366608e-01 0.000000e+00 0.000000e+00
1
Step 701000
Ar 1.035178e+00 0.000000e+00 0.000000e+00
1
Step 702000
Ar 8.887826e-01 0.000000e+00 0.000000e+00
1
Step 703000
Ar 1.007650e+00 0.000000e+00 0.000000e+00
1
Step 704000
Ar 9.582701e-01 0.000000e+00 0.000000e+00
1
Step 705000
Ar 1.108930e+00 0.000000e+00 0.000000e+00
1
Step 706000
Ar 1.038307e+00 0.000000e+00 0.000000e+00
1
Step 707000
Ar 1.063608e+00 0.000000e+00 0.000000e+00
1
Step 708000
Ar 1.123292e+00 0.000000e+00 0.000000e+00
1
Step 709000
Ar 9.772258e-01 0.000000e+00 0.000000e+00
1
Step 710000
Ar 1.077570e+00 0.000000e+00 0.000000e+00
1
Step 711000
Ar 7.374644e-01 0.000000e+00 0.000000e+00
1
Step 712000
Ar 9.714445e-01 0.000000e+00 0.000000e+00
1
Step 713000
Ar 1.008687e+00 0.000000e+00 0.000000e+00
1
Step 714000
Ar 9.788214e-01 0.000000e+00 0.000000e+00
1
Step 715000
Ar 9.388679e-01 0.000000e+00 0.000000e+00
1
Step 716000
Ar 1.161855e+00 0.000000e+00 0.000000e+00
1
Step 717000
Ar 9.823001e-01 0.000000e+00 0.000000e+00
1
Step 718000
Ar 9.876198e-01 0.000000e+00 0.000000e+00
1
Step 719000
Ar 9.249451e-01 0.000000e+00 0.000000e+00
1
Step 720000
Ar 8.487906e-01 0.000000e+00 0.000000e+00
1
Step 721000
Ar 9.105136e-01 0.000000e+00 0.000000e+00
1
Step 722000
Ar 8.196949e-01 0.000000e+00 0.000000e+00
1
Step 723000
Ar 9.060697e-01 0.000000e+00 0.000000e+00
1
Step 724000
Ar 1.087917e+00 0.000000e+00 0.000000e+00
1
Step 725000
Ar 1.015329e+00 0.000000e+00 0.000000e+00
1
Step 726000
Ar 8.713405e-01 0.000000e+00 0.000000e+00
1
Step 727000
Ar 1.223297e+00 0.000000e+00 0.000000e+00
1
Step 728000
Ar 8.668415e-01 0.000000e+00 0.000000e+00
1
Step 729000
Ar 7.566093e-01 0.000000e+00 0.000000e+00
1
Step 730000
Ar 9.415211e-01 0.000000e+00 0.000000e+00
1
Step 731000
Ar 1.043673e+00 0.000000e+00 0.000000e+00
1
Step 732000
Ar 9.689284e-01 0.000000e+00 0.000000e+00
1
Step 733000
Ar 1.055482e+00 0.000000e+00 0.000000e+00
1
Step 734000
Ar 1.042745e+00 0.000000e+00 0.000000e+00
1
Step 735000
Ar 1.036913e+00 0.000000e+00 0.000000e+00
1
Step 736000
Ar 1.186087e+00 0.000000e+00 0.000000e+00
1
Step 737000
Ar 7.199743e-01 0.000000e+00 0.000000e+00
1
Step 738000
Ar 7.208828e-01 0.000000e+00 0.000000e+00
1
Step 739000
Ar 1.086560e+00 0.000000e+00 0.000000e+00
1
Step 740000
Ar 9.867359e-01 0.000000e+00 0.000000e+00
1
Step 741000
Ar 8.242413e-01 0.000000e+00 0.000000e+00
1
Step 742000
Ar 9.501835e-01 0.000000e+00 0.000000e+00
1
Step 743000
Ar 9.766358e-01 0.000000e+00 0.000000e+00
1
Step 744000
Ar 1.117785e+00 0.000000e+00 0.000000e+00
1
Step 745000
Ar 9.056885e-01 0.000000e+00 0.000000e+00
1
Step 746000
Ar 1.282529e+00 0.000000e+00 0.000000e+00
1
Step 747000
Ar 9.505083e-01 0.000000e+00 0.000000e+00
1
Step 748000
Ar 7.690550e-01 0.000000e+00 0.000000e+00
1
Step 749000
Ar 9.397620e-01 0.000000e+00 0.000000e+00
1
Step 750000
Ar 8.464827e-01 0.000000e+00 0.000000e+00
1
Step 751000
Ar 8.416722e-01 0.000000e+00 0.000000e+00
1
Step 752000
Ar 9.176523e-01 0.000000e+00 0.000000e+00
1
Step 753000
Ar 1.020648e+00 0.000000e+00 0.000000e+00
1
Step 754000
Ar 9.050636e-01 0.000000e+00 0.000000e+00
1
Step 755000
Ar 1.057118e+00 0.000000e+00 0.000000e+00
1
Step 756000
Ar 9.024203e-01 0.000000e+00 0.000000e+00
1
Step 757000
Ar 1.067942e+00 0.000000e+00 0.000000e+00
1
Step 758000
Ar 8.793069e-01 0.000000e+00 0.000000e+00
1
Step 759000
Ar 1.055568e+00 0.000000e+00 0.000000e+00
1
Step 760000
Ar 8.009456e-01 0.000000e+00 0.000000e+00
1
Step 761000
Ar 1.134192e+00 0.000000e+00 0.000000e+00
1
Step 762000
Ar 8.811847e-01 0.000000e+00 0.000000e+00
1
Step 763000
Ar 9.643389e-01 0.000000e+00 0.000000e+00
1
Step 764000
Ar 8.250461e-01 0.000000e+00 0.000000e+00
1
Step 765000
Ar 9.274062e-01 0.000000e+00 0.000000e+00
1
Step 766000
Ar 9.078259e-01 0.000000e+00 0.000000e+00
1
Step 767000
Ar 1.138568e+00 0.000000e+00 0.000000e+00
1
Step 768000
Ar 1.075175e+00 0.000000e+00 0.000000e+00
1
Step 769000
Ar 8.811669e-01 0.000000e+00 0.000000e+00
1
Step 770000
Ar 8.799410e-01 0.000000e+00 0.000000e+00
1
Step 771000
Ar 9.766679e-01 0.000000e+00 0.000000e+00
1
Step 772000
Ar 1.003129e+00 0.000000e+00 0.000000e+00
1
Step 773000
Ar 1.004881e+00 0.000000e+00 0.000000e+00
1
Step 774000
Ar 9.082421e-01 0.000000e+00 0.000000e+00
1
Step 775000
Ar 9.052839e-01 0.000000e+00 0.000000e+00
1
Step 776000
Ar 1.146920e+00 0.000000e+00 0.000000e+00
1
Step 777000
Ar 9.613415e-01 0.000000e+00 0.000000e+00
1
Step 778000
Ar 1.036434e+00 0.000000e+00 0.000000e+00
1
Step 779000
Ar 1.104271e+00 0.000000e+00 0.000000e+00
1
Step 780000
Ar 1.060312e+00 0.000000e+00 0.000000e+00
1
Step 781000
Ar 1.007930e+00 0.000000e+00 0.000000e+00
1
Step 782000
Ar 7.619574e-01 0.000000e+00 0.000000e+00
1
Step 783000
Ar 9.187214e-01 0.000000e+00 0.000000e+00
1
Step 784000
Ar 1.046765e+00 0.000000e+00 0.000000e+00
1
Step 785000
Ar 9.216884e-01 0.000000e+00 0.000000e+00
1
Step 786000
Ar 7.439105e-01 0.000000e+00 0.000000e+00
1
Step 787000
Ar 9.726779e-01 0.000000e+00 0.000000e+00
1
Step 788000
Ar 1.140318e+00 0.000000e+00 0.000000e+00
1
Step 789000
Ar 1.043846e+00 0.000000e+00 0.000000e+00
1
Step 790000
Ar 9.047805e-01 0.000000e+00 0.000000e+00
1
Step 791000
Ar 1.010800e+00 0.000000e+00 0.000000e+00
1
Step 792000
Ar 7.773444e-01 0.000000e+00 0.000000e+00
1
Step 793000
Ar 9.500448e-01 0.000000e+00 0.000000e+00
1
Step 794000
Ar 9.737667e-01 0.000000e+00 0.000000e+00
1
Step 795000
Ar 8.267096e-01 0.000000e+00 0.000000e+00
1
Step 796000
Ar 9.142751e-01 0.000000e+00 0.000000e+00
1
Step 797000
Ar 1.147879e+00 0.000000e+00 0.000000e+00
1
Step 798000
Ar 9.912012e-01 0.000000e+00 0.000000e+00
1
Step 799000
Ar 8.759127e-01 0.000000e+00 0.000000e+00
1
Step 800000
Ar 7.310711e-01 0.000000e+00 0.000000e+00
1
Step 801000
Ar 1.089376e+00 0.000000e+00 0.000000e+00
1
Step 802000
Ar 9.897525e-01 0.000000e+00 0.000000e+00
1
Step 803000
Ar 1.098860e+00 0.000000e+00 0.000000e+00
1
Step 804000
Ar 1.052088e+00 0.000000e+00 0.000000e+00
1
Step 805000
Ar 9.897390e-01 0.000000e+00 0.000000e+00
1
Step 806000
Ar 1.005802e+00 0.000000e+00 0.000000e+00
1
Step 807000
Ar 9.997741e-01 0.000000e+00 0.000000e+00
1
Step 808000
Ar 9.608131e-01 0.000000e+00 0.000000e+00
1
Step 809000
Ar 1.124374e+00 0.000000e+00 0.000000e+00
1
Step 810000
Ar 1.048155e+00 0.000000e+00 0.000000e+00
1
Step 811000
Ar 9.725350e-01 0.000000e+00 0.000000e+00
1
Step 812000
Ar 1.049636e+00 0.000000e+00 0.000000e+00
1
Step 813000
Ar 9.596233e-01 0.000000e+00 0.000000e+00
1
Step 814000
Ar 1.030647e+00 0.000000e+00 0.000000e+00
1
Step 815000
Ar 8.276248e-01 0.000000e+00 0.000000e+00
1
Step 816000
Ar 8.551987e-01 0.000000e+00 0.000000e+00
1
Step 817000
Ar 8.757913e-01 0.000000e+00 0.000000e+00
1
Step 818000
Ar 1.037954e+00 0.000000e+00 0.000000e+00
1
Step 819000
Ar 1.049096e+00 0.000000e+00 0.000000e+00
1
Step 820000
Ar 9.937473e-01 0.000000e+00 0.000000e+00
1
Step 821000
Ar 1.043662e+00 0.000000e+00 0.000000e+00
1
Step 822000
Ar 1.049728e+00 0.000000e+00 0.000000e+00
1
Step 823000
Ar 1.093625e+00 0.000000e+00 0.000000e+00
1
Step 824000
Ar 1.256233e+00 0.000000e+00 0.000000e+00
1
Step 825000
Ar 1.140849e+00 0.000000e+00 0.000000e+00
1
Step 826000
Ar 1.043591e+00 0.000000e+00 0.000000e+00
1
Step 827000
Ar 1.124696e+00 0.000000e+00 0.000000e+00
1
Step 828000
Ar 1.087053e+00 0.000000e+00 0.000000e+00
1
Step 829000
Ar 1.083688e+00 0.000000e+00 0.000000e+00
1
Step 830000
Ar 1.033896e+00 0.000000e+00 0.000000e+00
1
Step 831000
Ar 1.073044e+00 0.000000e+00 0.000000e+00
1
Step 832000
Ar 1.226097e+00 0.000000e+00 0.000000e+00
1
Step 833000
Ar 1.137776e+00 0.000000e+00 0.000000e+00
1
Step 834000
Ar 1.112554e+00 0.000000e+00 0.000000e+00
1
Step 835000
Ar 1.044564e+00 0.000000e+00 0.000000e+00
1
Step 836000
Ar 1.058994e+00 0.000000e+00 0.000000e+00
1
Step 837000
Ar 1.042443e+00 0.000000e+00 0.000000e+00
1
Step 838000
Ar 1.078398e+00 0.000000e+00 0.000000e+00
1
Step 839000
Ar 1.031006e+00 0.000000e+00 0.000000e+00
1
Step 840000
Ar 1.146754e+00 0.000000e+00 0.000000e+00
1
Step 841000
Ar 1.248721e+00 0.000000e+00 0.000000e+00
1
Step 842000
Ar 1.036188e+00 0.000000e+00 0.000000e+00
1
Step 843000
Ar 1.075204e+00 0.000000e+00 0.000000e+00
1
Step 844000
Ar 1.027632e+00 0.000000e+00 0.000000e+00
1
Step 845000
Ar 1.101472e+00 0.000000e+00 0.000000e+00
1
Step 846000
Ar 1.086864e+00 0.000000e+00 0.000000e+00
1
Step 847000
Ar 1.048759e+00 0.000000e+00 0.000000e+00
1
Step 848000
Ar 1.191829e+00 0.000000e+00 0.000000e+00
1
Step 849000
Ar 1.158029e+00 0.000000e+00 0.000000e+00
1
Step 850000
Ar 1.117784e+00 0.000000e+00 0.000000e+00
1
Step 851000
Ar 1.153786e+00 0.000000e+00 0.000000e+00
1
Step 852000
Ar 1.115541e+00 0.000000e+00 0.000000e+00
1
Step 853000
Ar 1.171263e+00 0.000000e+00 0.000000e+00
1
Step 854000
Ar 1.128206e+00 0.000000e+00 0.000000e+00
1
Step 855000
Ar 1.015771e+00 0.000000e+00 0.000000e+00
1
Step 856000
Ar 1.131698e+00 0.000000e+00 0.000000e+00
1
Step 857000
Ar 1.075981e+00 0.000000e+00 0.000000e+00
1
Step 858000
Ar 1.083658e+00 0.000000e+00 0.000000e+00
1
Step 859000
Ar 1.023610e+00 0.000000e+00 0.000000e+00
1
Step 860000
Ar 1.049558e+00 0.000000e+00 0.000000e+00
1
Step 861000
Ar 1.062897e+00 0.000000e+00 0.000000e+00
1
Step 862000
Ar 1.011670e+00 0.000000e+00 0.000000e+00
1
Step 863000
Ar 1.059238e+00 0.000000e+00 0.000000e+00
1
Step 864000
Ar 1.103242e+00 0.000000e+00 0.000000e+00
1
Step 865000
Ar 1.130156e+00 0.000000e+00 0.000000e+00
1
Step 866000
Ar 1.034493e+00 0.000000e+00 0.000000e+00
1
Step 867000
Ar 1.218567e+00 0.000000e+00 0.000000e+00
1
Step 868000
Ar 1.060089e+00 0.000000e+00 0.000000e+00
1
Step 869000
Ar 1.055069e+00 0.000000e+00 0.000000e+00
1
Step 870000
Ar 1.106117e+00 0.000000e+00 0.000000e+00
1
Step 871000
Ar 1.107649e+00 0.000000e+00 0.000000e+00
1
Step 872000
Ar 1.004705e+00 0.000000e+00 0.000000e+00
1
Step 873000
Ar 1.112915e+00 0.000000e+00 0.000000e+00
1
Step 874000
Ar 1.137299e+00 0.000000e+00 0.000000e+00
1
Step 875000
Ar 1.048211e+00 0.000000e+00 0.000000e+00
1
Step 876000
Ar 1.055592e+00 0.000000e+00 0.000000e+00
1
Step 877000
Ar 1.016669e+00 0.000000e+00 0.000000e+00
1
Step 878000
Ar 1.090606e+00 0.000000e+00 0.000000e+00
1
Step 879000
Ar 1.055528e+00 0.000000e+00 0.000000e+00
1
Step 880000
Ar 1.065842e+00 0.000000e+00 0.000000e+00
1
Step 881000
Ar 1.020236e+00 0.000000e+00 0.000000e+00
1
Step 882000
Ar 1.008880e+00 0.000000e+00 0.000000e+00
1
Step 883000
Ar 1.079437e+00 0.000000e+00 0.000000e+00
1
Step 884000
Ar 1.087929e+00 0.000000e+00 0.000000e+00
1
Step 885000
Ar 1.158508e+00 0.000000e+00 0.000000e+00
1
Step 886000
Ar 1.017518e+00 0.000000e+00 0.000000e+00
1
Step 887000
Ar 1.036106e+00 0.000000e+00 0.000000e+00
1
Step 888000
Ar 1.245368e+00 0.000000e+00 0.000000e+00
1
Step 889000
Ar 1.018934e+00 0.000000e+00 0.000000e+00
1
Step 890000
Ar 1.061385e+00 0.000000e+00 0.000000e+00
1
Step 891000
Ar 1.074005e+00 0.000000e+00 0.000000e+00
1
Step 892000
Ar 1.058073e+00 0.000000e+00 0.000000e+00
1
Step 893000
Ar 1.140893e+00 0.000000e+00 0.000000e+00
1
Step 894000
Ar 1.209043e+00 0.000000e+00 0.000000e+00
1
Step 895000
Ar 1.033833e+00 0.000000e+00 0.000000e+00
1
Step 896000
Ar 1.151977e+00 0.000000e+00 0.000000e+00
1
Step 897000
Ar 1.027774e+00 0.000000e+00 0.000000e+00
1
Step 898000
Ar 1.080503e+00 0.000000e+00 0.000000e+00
1
Step 899000
Ar 1.048824e+00 0.000000e+00 0.000000e+00
1
Step 900000
Ar 1.102976e+00 0.000000e+00 0.000000e+00
1
Step 901000
Ar 1.106179e+00 0.000000e+00 0.000000e+00
1
Step 902000
Ar 1.043378e+00 0.000000e+00 0.000000e+00
1
Step 903000
Ar 1.038690e+00 0.000000e+00 0.000000e+00
1
Step 904000
Ar 1.045596e+00 0.000000e+00 0.000000e+00
1
Step 905000
Ar 1.193215e+00 0.000000e+00 0.000000e+00
1
Step 906000
Ar 1.119020e+00 0.000000e+00 0.000000e+00
1
Step 907000
Ar 1.029644e+00 0.000000e+00 0.000000e+00
1
Step 908000
Ar 1.109660e+00 0.000000e+00 0.000000e+00
1
Step 909000
Ar 1.020619e+00 0.000000e+00 0.000000e+00
1
Step 910000
Ar 1.066377e+00 0.000000e+00 0.000000e+00
1
Step 911000
Ar 1.137067e+00 0.000000e+00 0.000000e+00
1
Step 912000
Ar 1.211934e+00 0.000000e+00 0.000000e+00
1
Step 913000
Ar 1.075856e+00 0.000000e+00 0.000000e+00
1
Step 914000
Ar 1.007373e+00 0.000000e+00 0.000000e+00
1
Step 915000
Ar 1.024400e+00 0.000000e+00 0.000000e+00
1
Step 916000
Ar 1.070326e+00 0.000000e+00 0.000000e+00
1
Step 917000
Ar 1.008332e+00 0.000000e+00 0.000000e+00
1
Step 918000
Ar 1.047915e+00 0.000000e+00 0.000000e+00
1
Step 919000
Ar 1.112735e+00 0.000000e+00 0.000000e+00
1
Step 920000
Ar 1.017097e+00 0.000000e+00 0.000000e+00
1
Step 921000
Ar 1.093874e+00 0.000000e+00 0.000000e+00
1
Step 922000
Ar 1.072589e+00 0.000000e+00 0.000000e+00
1
Step 923000
Ar 1.119368e+00 0.000000e+00 0.000000e+00
1
Step 924000
Ar 1.146329e+00 0.000000e+00 0.000000e+00
1
Step 925000
Ar 1.019128e+00 0.000000e+00 0.000000e+00
1
Step 926000
Ar 1.166839e+00 0.000000e+00 0.000000e+00
1
Step 927000
Ar 1.075512e+00 0.000000e+00 0.000000e+00
1
Step 928000
Ar 1.083076e+00 0.000000e+00 0.000000e+00
1
Step 929000
Ar 1.093931e+00 0.000000e+00 0.000000e+00
1
Step 930000
Ar 1.088478e+00 0.000000e+00 0.000000e+00
1
Step 931000
Ar 1.108912e+00 0.000000e+00 0.000000e+00
1
Step 932000
Ar 1.061652e+00 0.000000e+00 0.000000e+00
1
Step 933000
Ar 1.030176e+00 0.000000e+00 0.000000e+00
1
Step 934000
Ar 1.023616e+00 0.000000e+00 0.000000e+00
1
Step 935000
Ar 1.261686e+00 0.000000e+00 0.000000e+00
1
Step 936000
Ar 1.173186e+00 0.000000e+00 0.000000e+00
1
Step 937000
Ar 1.051534e+00 0.000000e+00 0.000000e+00
1
Step 938000
Ar 1.043005e+00 0.000000e+00 0.000000e+00
1
Step 939000
Ar 1.183323e+00 0.000000e+00 0.000000e+00
1
Step 940000
Ar 1.102643e+00 0.000000e+00 0.000000e+00
1
Step 941000
Ar 1.094185e+00 0.000000e+00 0.000000e+00
1
Step 942000
Ar 1.083604e+00 0.000000e+00 0.000000e+00
1
Step 943000
Ar 1.152780e+00 0.000000e+00 0.000000e+00
1
Step 944000
Ar 1.261482e+00 0.000000e+00 0.000000e+00
1
Step 945000
Ar 1.176023e+00 0.000000e+00 0.000000e+00
1
Step 946000
Ar 1.054347e+00 0.000000e+00 0.000000e+00
1
Step 947000
Ar 1.024103e+00 0.000000e+00 0.000000e+00
1
Step 948000
Ar 1.104936e+00 0.000000e+00 0.000000e+00
1
Step 949000
Ar 1.017402e+00 0.000000e+00 0.000000e+00
1
Step 950000
Ar 1.175880e+00 0.000000e+00 0.000000e+00
1
Step 951000
Ar 1.048095e+00 0.000000e+00 0.000000e+00
1
Step 952000
Ar 1.115199e+00 0.000000e+00 0.000000e+00
1
Step 953000
Ar 1.067425e+00 0.000000e+00 0.000000e+00
1
Step 954000
Ar 1.160238e+00 0.000000e+00 0.000000e+00
1
Step 955000
Ar 1.137876e+00 0.000000e+00 0.000000e+00
1
Step 956000
Ar 1.036269e+00 0.000000e+00 0.000000e+00
1
Step 957000
Ar 1.070429e+00 0.000000e+00 0.000000e+00
1
Step 958000
Ar 1.108393e+00 0.000000e+00 0.000000e+00
1
Step 959000
Ar 1.036213e+00 0.000000e+00 0.000000e+00
1
Step 960000
Ar 1.098477e+00 0.000000e+00 0.000000e+00
1
Step 961000
Ar 1.099947e+00 0.000000e+00 0.000000e+00
1
Step 962000
Ar 1.025469e+00 0.000000e+00 0.000000e+00
1
Step 963000
Ar 1.002775e+00 0.000000e+00 0.000000e+00
1
Step 964000
Ar 1.046692e+00 0.000000e+00 0.000000e+00
1
Step 965000
Ar 1.084799e+00 0.000000e+00 0.000000e+00
1
Step 966000
Ar 1.021938e+00 0.000000e+00 0.000000e+00
1
Step 967000
Ar 1.064470e+00 0.000000e+00 0.000000e+00
1
Step 968000
Ar 1.137162e+00 0.000000e+00 0.000000e+00
1
Step 969000
Ar 1.117068e+00 0.000000e+00 0.000000e+00
1
Step 970000
Ar 1.190873e+00 0.000000e+00 0.000000e+00
1
Step 971000
Ar 1.054079e+00 0.000000e+00 0.000000e+00
1
Step 972000
Ar 1.111604e+00 0.000000e+00 0.000000e+00
1
Step 973000
Ar 1.063372e+00 0.000000e+00 0.000000e+00
1
Step 974000
Ar 1.095067e+00 0.000000e+00 0.000000e+00
1
Step 975000
Ar 1.075379e+00 0.000000e+00 0.000000e+00
1
Step 976000
Ar 1.074380e+00 0.000000e+00 0.000000e+00
1
Step 977000
Ar 1.062789e+00 0.000000e+00 0.000000e+00
1
Step 978000
Ar 1.018402e+00 0.000000e+00 0.000000e+00
1
Step 979000
Ar 1.116988e+00 0.000000e+00 0.000000e+00
1
Step 980000
Ar 1.088936e+00 0.000000e+00 0.000000e+00
1
Step 981000
Ar 1.174994e+00 0.000000e+00 0.000000e+00
1
Step 982000
Ar 1.031586e+00 0.000000e+00 0.000000e+00
1
Step 983000
Ar 1.008070e+00 0.000000e+00 0.000000e+00
1
Step 984000
Ar 1.051111e+00 0.000000e+00 0.000000e+00
1
Step 985000
Ar 1.064932e+00 0.000000e+00 0.000000e+00
1
Step 986000
Ar 1.066376e+00 0.000000e+00 0.000000e+00
1
Step 987000
Ar 1.022426e+00 0.000000e+00 0.000000e+00
1
Step 988000
Ar 1.119550e+00 0.000000e+00 0.000000e+00
1
Step 989000
Ar 1.160558e+00 0.000000e+00 0.000000e+00
1
Step 990000
Ar 1.101529e+00 0.000000e+00 0.000000e+00
1
Step 991000
Ar 1.073537e+00 0.000000e+00 0.000000e+00
1
Step 992000
Ar 1.071920e+00 0.000000e+00 0.000000e+00
1
Step 993000
Ar 1.110577e+00 0.000000e+00 0.000000e+00
1
Step 994000
Ar 1.080928e+00 0.000000e+00 0.000000e+00
1
Step 995000
Ar 1.137548e+00 0.000000e+00 0.000000e+00
1
Step 996000
Ar 1.038782e+00 0.000000e+00 0.000000e+00
1
Step 997000
Ar 1.026017e+00 0.000000e+00 0.000000e+00
1
Step 998000
Ar 1.111144e+00 0.000000e+00 0.000000e+00
1
Step 999000
Ar 1.096890e+00 0.000000e+00 0.000000e+00
