1
Step 120000
Ar 9.034104e-01 0.000000e+00 0.000000e+00
1
Step 121000
Ar 1.041300e+00 0.000000e+00 0.000000e+00
1
Step 122000
Ar 8.830352e-01 0.000000e+00 0.000000e+00
1
Step 123000
Ar 8.020621e-01 0.000000e+00 0.000000e+00
1
Step 124000
Ar 9.136221e-01 0.000000e+00 0.000000e+00
1
Step 125000
Ar 1.076723e+00 0.000000e+00 0.000000e+00
1
Step 126000
Ar 9.402957e-01 0.000000e+00 0.000000e+00
1
Step 127000
Ar 9.440526e-01 0.000000e+00 0.000000e+00
1
Step 128000
Ar 9.439680e-01 0.000000e+00 0.000000e+00
1
Step 129000
Ar 1.164399e+00 0.000000e+00 0.000000e+00
1
Step 130000
Ar 8.318060e-01 0.000000e+00 0.000000e+00
1
Step 131000
Ar 8.513780e-01 0.000000e+00 0.000000e+00
1
Step 132000
Ar 8.747621e-01 0.000000e+00 0.000000e+00
1
Step 133000
Ar 1.020330e+00 0.000000e+00 0.000000e+00
1
Step 134000
Ar 9.633300e-01 0.000000e+00 0.000000e+00
1
Step 135000
Ar 1.044398e+00 0.000000e+00 0.000000e+00
1
Step 136000
Ar 1.000465e+00 0.000000e+00 0.000000e+00
1
Step 137000
Ar 8.897734e-01 0.000000e+00 0.000000e+00
1
Step 138000
Ar 7.557462e-01 0.000000e+00 0.000000e+00
1
Step 139000
Ar 8.707700e-01 0.000000e+00 0.000000e+00
1
Step 140000
Ar 6.246978e-01 0.000000e+00 0.000000e+00
1
Step 141000
Ar 1.150022e+00 0.000000e+00 0.000000e+00
1
Step 142000
Ar 1.028344e+00 0.000000e+00 0.000000e+00
1
Step 143000
Ar 9.745574e-01 0.000000e+00 0.000000e+00
1
Step 144000
Ar 1.045061e+00 0.000000e+00 0.000000e+00
1
Step 145000
Ar 1.013912e+00 0.000000e+00 0.000000e+00
1
Step 146000
Ar 9.453254e-01 0.000000e+00 0.000000e+00
1
Step 147000
Ar 8.176687e-01 0.000000e+00 0.000000e+00
1
Step 148000
Ar 9.075848e-01 0.000000e+00 0.000000e+00
1
Step 149000
Ar 1.009501e+00 0.000000e+00 0.000000e+00
1
Step 150000
Ar 8.678127e-01 0.000000e+00 0.000000e+00
1
Step 151000
Ar 9.049264e-01 0.000000e+00 0.000000e+00
1
Step 152000
Ar 1.076664e+00 0.000000e+00 0.000000e+00
1
Step 153000
Ar 9.637254e-01 0.000000e+00 0.000000e+00
1
Step 154000
Ar 1.048912e+00 0.000000e+00 0.000000e+00
1
Step 155000
Ar 9.556378e-01 0.000000e+00 0.000000e+00
1
Step 156000
Ar 1.160793e+00 0.000000e+00 0.000000e+00
1
Step 157000
Ar 9.923002e-01 0.000000e+00 0.000000e+00
1
Step 158000
Ar 1.196543e+00 0.000000e+00 0.000000e+00
1
Step 159000
Ar 9.225209e-01 0.000000e+00 0.000000e+00
1
Step 160000
Ar 1.081125e+00 0.000000e+00 0.000000e+00
1
Step 161000
Ar 9.663550e-01 0.000000e+00 0.000000e+00
1
Step 162000
Ar 1.024096e+00 0.000000e+00 0.000000e+00
1
Step 163000
Ar 1.109764e+00 0.000000e+00 0.000000e+00
1
Step 164000
Ar 1.061582e+00 0.000000e+00 0.000000e+00
1
Step 165000
Ar 8.829307e-01 0.000000e+00 0.000000e+00
1
Step 166000
Ar 9.445405e-01 0.000000e+00 0.000000e+00
1
Step 167000
Ar 9.584561e-01 0.000000e+00 0.000000e+00
1
Step 168000
Ar 8.702101e-01 0.000000e+00 0.000000e+00
1
Step 169000
Ar 9.861166e-01 0.000000e+00 0.000000e+00
1
Step 170000
Ar 7.977733e-01 0.000000e+00 0.000000e+00
1
Step 171000
Ar 9.342426e-01 0.000000e+00 0.000000e+00
1
Step 172000
Ar 9.885707e-01 0.000000e+00 0.000000e+00
1
Step 173000
Ar 8.905693e-01 0.000000e+00 0.000000e+00
1
Step 174000
Ar 1.009036e+00 0.000000e+00 0.000000e+00
1
Step 175000
Ar 6.923108e-01 0.000000e+00 0.000000e+00
1
Step 176000
Ar 1.031037e+00 0.000000e+00 0.000000e+00
1
Step 177000
Ar 9.910451e-01 0.000000e+00 0.000000e+00
1
Step 178000
Ar 1.149892e+00 0.000000e+00 0.000000e+00
1
Step 179000
Ar 9.259619e-01 0.000000e+00 0.000000e+00
1
Step 180000
Ar 1.171543e+00 0.000000e+00 0.000000e+00
1
Step 181000
Ar 1.124350e+00 0.000000e+00 0.000000e+00
1
Step 182000
Ar 9.787374e-01 0.000000e+00 0.000000e+00
1
Step 183000
Ar 9.570659e-01 0.000000e+00 0.000000e+00
1
Step 184000
Ar 9.839389e-01 0.000000e+00 0.000000e+00
1
Step 185000
Ar 9.011462e-01 0.000000e+00 0.000000e+00
1
Step 186000
Ar 9.581469e-01 0.000000e+00 0.000000e+00
1
Step 187000
Ar 9.079727e-01 0.000000e+00 0.000000e+00
1
Step 188000
Ar 7.258336e-01 0.000000e+00 0.000000e+00
1
Step 189000
Ar 1.152925e+00 0.000000e+00 0.000000e+00
1
Step 190000
Ar 1.033769e+00 0.000000e+00 0.000000e+00
1
Step 191000
Ar 1.086758e+00 0.000000e+00 0.000000e+00
1
Step 192000
Ar 1.063063e+00 0.000000e+00 0.000000e+00
1
Step 193000
Ar 1.103387e+00 0.000000e+00 0.000000e+00
1
Step 194000
Ar 8.299952e-01 0.000000e+00 0.000000e+00
1
Step 195000
Ar 9.035864e-01 0.000000e+00 0.000000e+00
1
Step 196000
Ar 9.883096e-01 0.000000e+00 0.000000e+00
1
Step 197000
Ar 1.048865e+00 0.000000e+00 0.000000e+00
1
Step 198000
Ar 9.771603e-01 0.000000e+00 0.000000e+00
1
Step 199000
Ar 1.005253e+00 0.000000e+00 0.000000e+00
1
Step 200000
Ar 1.011917e+00 0.000000e+00 0.000000e+00
1
Step 201000
Ar 8.317236e-01 0.000000e+00 0.000000e+00
1
Step 202000
Ar 9.099716e-01 0.000000e+00 0.000000e+00
1
Step 203000
Ar 9.913099e-01 0.000000e+00 0.000000e+00
1
Step 204000
Ar 1.014543e+00 0.000000e+00 0.000000e+00
1
Step 205000
Ar 1.101097e+00 0.000000e+00 0.000000e+00
1
Step 206000
Ar 9.433248e-01 0.000000e+00 0.000000e+00
1
Step 207000
Ar 8.880606e-01 0.000000e+00 0.000000e+00
1
Step 208000
Ar 1.014225e+00 0.000000e+00 0.000000e+00
1
Step 209000
Ar 8.901670e-01 0.000000e+00 0.000000e+00
1
Step 210000
Ar 9.737338e-01 0.000000e+00 0.000000e+00
1
Step 211000
Ar 9.906205e-01 0.000000e+00 0.000000e+00
1
Step 212000
Ar 9.691572e-01 0.000000e+00 0.000000e+00
1
Step 213000
Ar 8.413354e-01 0.000000e+00 0.000000e+00
1
Step 214000
Ar 1.018821e+00 0.000000e+00 0.000000e+00
1
Step 215000
Ar 1.107362e+00 0.000000e+00 0.000000e+00
1
Step 216000
Ar 1.046244e+00 0.000000e+00 0.000000e+00
1
Step 217000
Ar 9.109987e-01 0.000000e+00 0.000000e+00
1
Step 218000
Ar 1.120431e+00 0.000000e+00 0.000000e+00
1
Step 219000
Ar 9.868974e-01 0.000000e+00 0.000000e+00
1
Step 220000
Ar 9.887494e-01 0.000000e+00 0.000000e+00
1
Step 221000
Ar 1.122392e+00 0.000000e+00 0.000000e+00
1
Step 222000
Ar 9.859701e-01 0.000000e+00 0.000000e+00
1
Step 223000
Ar 8.714449e-01 0.000000e+00 0.000000e+00
1
Step 224000
Ar 7.648804e-01 0.000000e+00 0.000000e+00
1
Step 225000
Ar 9.287094e-01 0.000000e+00 0.000000e+00
1
Step 226000
Ar 1.078955e+00 0.000000e+00 0.000000e+00
1
Step 227000
Ar 1.033557e+00 0.000000e+00 0.000000e+00
1
Step 228000
Ar 1.141823e+00 0.000000e+00 0.000000e+00
1
Step 229000
Ar 1.081360e+00 0.000000e+00 0.000000e+00
1
Step 230000
Ar 9.466935e-01 0.000000e+00 0.000000e+00
1
Step 231000
Ar 1.090878e+00 0.000000e+00 0.000000e+00
1
Step 232000
Ar 9.925410e-01 0.000000e+00 0.000000e+00
1
Step 233000
Ar 9.456818e-01 0.000000e+00 0.000000e+00
1
Step 234000
Ar 9.116939e-01 0.000000e+00 0.000000e+00
1
Step 235000
Ar 8.692723e-01 0.000000e+00 0.000000e+00
1
Step 236000
Ar 1.010706e+00 0.000000e+00 0.000000e+00
1
Step 237000
Ar 1.078725e+00 0.000000e+00 0.000000e+00
1
Step 238000
Ar 1.032769e+00 0.000000e+00 0.000000e+00
1
Step 239000
Ar 1.135240e+00 0.000000e+00 0.000000e+00
1
Step 240000
Ar 8.959195e-01 0.000000e+00 0.000000e+00
1
Step 241000
Ar 7.477916e-01 0.000000e+00 0.000000e+00
1
Step 242000
Ar 9.608987e-01 0.000000e+00 0.000000e+00
1
Step 243000
Ar 1.061246e+00 0.000000e+00 0.000000e+00
1
Step 244000
Ar 8.111602e-01 0.000000e+00 0.000000e+00
1
Step 245000
Ar 1.198119e+00 0.000000e+00 0.000000e+00
1
Step 246000
Ar 1.044305e+00 0.000000e+00 0.000000e+00
1
Step 247000
Ar 1.138498e+00 0.000000e+00 0.000000e+00
1
Step 248000
Ar 9.149883e-01 0.000000e+00 0.000000e+00
1
Step 249000
Ar 8.377424e-01 0.000000e+00 0.000000e+00
1
Step 250000
Ar 1.085911e+00 0.000000e+00 0.000000e+00
1
Step 251000
Ar 1.112534e+00 0.000000e+00 0.000000e+00
1
Step 252000
Ar 1.160218e+00 0.000000e+00 0.000000e+00
1
Step 253000
Ar 8.978818e-01 0.000000e+00 0.000000e+00
1
Step 254000
Ar 8.130479e-01 0.000000e+00 0.000000e+00
1
Step 255000
Ar 1.048296e+00 0.000000e+00 0.000000e+00
1
Step 256000
Ar 8.409695e-01 0.000000e+00 0.000000e+00
1
Step 257000
Ar 8.486741e-01 0.000000e+00 0.000000e+00
1
Step 258000
Ar 8.684529e-01 0.000000e+00 0.000000e+00
1
Step 259000
Ar 1.122145e+00 0.000000e+00 0.000000e+00
1
Step 260000
Ar 9.624927e-01 0.000000e+00 0.000000e+00
1
Step 261000
Ar 8.029878e-01 0.000000e+00 0.000000e+00
1
Step 262000
Ar 9.214842e-01 0.000000e+00 0.000000e+00
1
Step 263000
Ar 9.651896e-01 0.000000e+00 0.000000e+00
1
Step 264000
Ar 9.743247e-01 0.000000e+00 0.000000e+00
1
Step 265000
Ar 1.171419e+00 0.000000e+00 0.000000e+00
1
Step 266000
Ar 9.378662e-01 0.000000e+00 0.000000e+00
1
Step 267000
Ar 7.963224e-01 0.000000e+00 0.000000e+00
1
Step 268000
Ar 1.084497e+00 0.000000e+00 0.000000e+00
1
Step 269000
Ar 1.125638e+00 0.000000e+00 0.000000e+00
1
Step 270000
Ar 1.003157e+00 0.000000e+00 0.000000e+00
1
Step 271000
Ar 8.861308e-01 0.000000e+00 0.000000e+00
1
Step 272000
Ar 7.718668e-01 0.000000e+00 0.000000e+00
1
Step 273000
Ar 9.478869e-01 0.000000e+00 0.000000e+00
1
Step 274000
Ar 1.146593e+00 0.000000e+00 0.000000e+00
1
Step 275000
Ar 1.103914e+00 0.000000e+00 0.000000e+00
1
Step 276000
Ar 1.033081e+00 0.000000e+00 0.000000e+00
1
Step 277000
Ar 1.104033e+00 0.000000e+00 0.000000e+00
1
Step 278000
Ar 8.612964e-01 0.000000e+00 0.000000e+00
1
Step 279000
Ar 7.985180e-01 0.000000e+00 0.000000e+00
1
Step 280000
Ar 9.763437e-01 0.000000e+00 0.000000e+00
1
Step 281000
Ar 1.112057e+00 0.000000e+00 0.000000e+00
1
Step 282000
Ar 8.702619e-01 0.000000e+00 0.000000e+00
1
Step 283000
Ar 1.062258e+00 0.000000e+00 0.000000e+00
1
Step 284000
Ar 9.021563e-01 0.000000e+00 0.000000e+00
1
Step 285000
Ar 9.101397e-01 0.000000e+00 0.000000e+00
1
Step 286000
Ar 1.104749e+00 0.000000e+00 0.000000e+00
1
Step 287000
Ar 1.009525e+00 0.000000e+00 0.000000e+00
1
Step 288000
Ar 1.029042e+00 0.000000e+00 0.000000e+00
1
Step 289000
Ar 1.060435e+00 0.000000e+00 0.000000e+00
1
Step 290000
Ar 1.035506e+00 0.000000e+00 0.000000e+00
1
Step 291000
Ar 8.068461e-01 0.000000e+00 0.000000e+00
1
Step 292000
Ar 8.448154e-01 0.000000e+00 0.000000e+00
1
Step 293000
Ar 1.079925e+00 0.000000e+00 0.000000e+00
1
Step 294000
Ar 1.030486e+00 0.000000e+00 0.000000e+00
1
Step 295000
Ar 9.723561e-01 0.000000e+00 0.000000e+00
1
Step 296000
Ar 1.191930e+00 0.000000e+00 0.000000e+00
1
Step 297000
Ar 9.564088e-01 0.000000e+00 0.000000e+00
1
Step 298000
Ar 9.993222e-01 0.000000e+00 0.000000e+00
1
Step 299000
Ar 9.832228e-01 0.000000e+00 0.000000e+00
1
Step 300000
Ar 9.705945e-01 0.000000e+00 0.000000e+00
1
Step 301000
Ar 8.652506e-01 0.000000e+00 0.000000e+00
1
Step 302000
Ar 9.274434e-01 0.000000e+00 0.000000e+00
1
Step 303000
Ar 9.665050e-01 0.000000e+00 0.000000e+00
1
Step 304000
Ar 9.708380e-01 0.000000e+00 0.000000e+00
1
Step 305000
Ar 8.201609e-01 0.000000e+00 0.000000e+00
1
Step 306000
Ar 1.133135e+00 0.000000e+00 0.000000e+00
1
Step 307000
Ar 9.387525e-01 0.000000e+00 0.000000e+00
1
Step 308000
Ar 9.700932e-01 0.000000e+00 0.000000e+00
1
Step 309000
Ar 1.059106e+00 0.000000e+00 0.000000e+00
1
Step 310000
Ar 9.051863e-01 0.000000e+00 0.000000e+00
1
Step 311000
Ar 1.095688e+00 0.000000e+00 0.000000e+00
1
Step 312000
Ar 1.017696e+00 0.000000e+00 0.000000e+00
1
Step 313000
Ar 8.158915e-01 0.000000e+00 0.000000e+00
1
Step 314000
Ar 1.031000e+00 0.000000e+00 0.000000e+00
1
Step 315000
Ar 9.343189e-01 0.000000e+00 0.000000e+00
1
Step 316000
Ar 8.859020e-01 0.000000e+00 0.000000e+00
1
Step 317000
Ar 7.814068e-01 0.000000e+00 0.000000e+00
1
Step 318000
Ar 1.160939e+00 0.000000e+00 0.000000e+00
1
Step 319000
Ar 1.095445e+00 0.000000e+00 0.000000e+00
1
Step 320000
Ar 9.784779e-01 0.000000e+00 0.000000e+00
1
Step 321000
Ar 8.097733e-01 0.000000e+00 0.000000e+00
1
Step 322000
Ar 9.218606e-01 0.000000e+00 0.000000e+00
1
Step 323000
Ar 9.582772e-01 0.000000e+00 0.000000e+00
1
Step 324000
Ar 9.310854e-01 0.000000e+00 0.000000e+00
1
Step 325000
Ar 1.104435e+00 0.000000e+00 0.000000e+00
1
Step 326000
Ar 8.778222e-01 0.000000e+00 0.000000e+00
1
Step 327000
Ar 1.149352e+00 0.000000e+00 0.000000e+00
1
Step 328000
Ar 9.389185e-01 0.000000e+00 0.000000e+00
1
Step 329000
Ar 1.202723e+00 0.000000e+00 0.000000e+00
1
Step 330000
Ar 9.748815e-01 0.000000e+00 0.000000e+00
1
Step 331000
Ar 1.148257e+00 0.000000e+00 0.000000e+00
1
Step 332000
Ar 9.292066e-01 0.000000e+00 0.000000e+00
1
Step 333000
Ar 1.000650e+00 0.000000e+00 0.000000e+00
1
Step 334000
Ar 1.102377e+00 0.000000e+00 0.000000e+00
1
Step 335000
Ar 8.105623e-01 0.000000e+00 0.000000e+00
1
Step 336000
Ar 1.008604e+00 0.000000e+00 0.000000e+00
1
Step 337000
Ar 9.929390e-01 0.000000e+00 0.000000e+00
1
Step 338000
Ar 1.071244e+00 0.000000e+00 0.000000e+00
1
Step 339000
Ar 8.545149e-01 0.000000e+00 0.000000e+00
1
Step 340000
Ar 1.377200e+00 0.000000e+00 0.000000e+00
1
Step 341000
Ar 1.076501e+00 0.000000e+00 0.000000e+00
1
Step 342000
Ar 1.065134e+00 0.000000e+00 0.000000e+00
1
Step 343000
Ar 8.666398e-01 0.000000e+00 0.000000e+00
1
Step 344000
Ar 1.052174e+00 0.000000e+00 0.000000e+00
1
Step 345000
Ar 6.771063e-01 0.000000e+00 0.000000e+00
1
Step 346000
Ar 9.508240e-01 0.000000e+00 0.000000e+00
1
Step 347000
Ar 8.089197e-01 0.000000e+00 0.000000e+00
1
Step 348000
Ar 1.085910e+00 0.000000e+00 0.000000e+00
1
Step 349000
Ar 1.119735e+00 0.000000e+00 0.000000e+00
1
Step 350000
Ar 9.717840e-01 0.000000e+00 0.000000e+00
1
Step 351000
Ar 9.381845e-01 0.000000e+00 0.000000e+00
1
Step 352000
Ar 8.810344e-01 0.000000e+00 0.000000e+00
1
Step 353000
Ar 1.029378e+00 0.000000e+00 0.000000e+00
1
Step 354000
Ar 1.057788e+00 0.000000e+00 0.000000e+00
1
Step 355000
Ar 1.147689e+00 0.000000e+00 0.000000e+00
1
Step 356000
Ar 8.164466e-01 0.000000e+00 0.000000e+00
1
Step 357000
Ar 1.020291e+00 0.000000e+00 0.000000e+00
1
Step 358000
Ar 8.520131e-01 0.000000e+00 0.000000e+00
1
Step 359000
Ar 1.075211e+00 0.000000e+00 0.000000e+00
1
Step 360000
Ar 1.096078e+00 0.000000e+00 0.000000e+00
1
Step 361000
Ar 1.053398e+00 0.000000e+00 0.000000e+00
1
Step 362000
Ar 1.163993e+00 0.000000e+00 0.000000e+00
1
Step 363000
Ar 6.939038e-01 0.000000e+00 0.000000e+00
1
Step 364000
Ar 9.247284e-01 0.000000e+00 0.000000e+00
1
Step 365000
Ar 1.029768e+00 0.000000e+00 0.000000e+00
1
Step 366000
Ar 8.536978e-01 0.000000e+00 0.000000e+00
1
Step 367000
Ar 9.253099e-01 0.000000e+00 0.000000e+00
1
Step 368000
Ar 8.795743e-01 0.000000e+00 0.000000e+00
1
Step 369000
Ar 9.629042e-01 0.000000e+00 0.000000e+00
1
Step 370000
Ar 9.377560e-01 0.000000e+00 0.000000e+00
1
Step 371000
Ar 1.112586e+00 0.000000e+00 0.000000e+00
1
Step 372000
Ar 1.032287e+00 0.000000e+00 0.000000e+00
1
Step 373000
Ar 1.007823e+00 0.000000e+00 0.000000e+00
1
Step 374000
Ar 1.014798e+00 0.000000e+00 0.000000e+00
1
Step 375000
Ar 1.025839e+00 0.000000e+00 0.000000e+00
1
Step 376000
Ar 9.088488e-01 0.000000e+00 0.000000e+00
1
Step 377000
Ar 1.042107e+00 0.000000e+00 0.000000e+00
1
Step 378000
Ar 7.461081e-01 0.000000e+00 0.000000e+00
1
Step 379000
Ar 1.078903e+00 0.000000e+00 0.000000e+00
1
Step 380000
Ar 9.624586e-01 0.000000e+00 0.000000e+00
1
Step 381000
Ar 9.202911e-01 0.000000e+00 0.000000e+00
1
Step 382000
Ar 1.109195e+00 0.000000e+00 0.000000e+00
1
Step 383000
Ar 1.145423e+00 0.000000e+00 0.000000e+00
1
Step 384000
Ar 6.853199e-01 0.000000e+00 0.000000e+00
1
Step 385000
Ar 6.431599e-01 0.000000e+00 0.000000e+00
1
Step 386000
Ar 9.890103e-01 0.000000e+00 0.000000e+00
1
Step 387000
Ar 1.047277e+00 0.000000e+00 0.000000e+00
1
Step 388000
Ar 9.065529e-01 0.000000e+00 0.000000e+00
1
Step 389000
Ar 9.087962e-01 0.000000e+00 0.000000e+00
1
Step 390000
Ar 9.550107e-01 0.000000e+00 0.000000e+00
1
Step 391000
Ar 8.042885e-01 0.000000e+00 0.000000e+00
1
Step 392000
Ar 1.087692e+00 0.000000e+00 0.000000e+00
1
Step 393000
Ar 9.481340e-01 0.000000e+00 0.000000e+00
1
Step 394000
Ar 1.003196e+00 0.000000e+00 0.000000e+00
1
Step 395000
Ar 9.554781e-01 0.000000e+00 0.000000e+00
1
Step 396000
Ar 9.632338e-01 0.000000e+00 0.000000e+00
1
Step 397000
Ar 8.736605e-01 0.000000e+00 0.000000e+00
1
Step 398000
Ar 1.145988e+00 0.000000e+00 0.000000e+00
1
Step 399000
Ar 1.102855e+00 0.000000e+00 0.000000e+00
1
Step 400000
Ar 1.023910e+00 0.000000e+00 0.000000e+00
1
Step 401000
Ar 9.421148e-01 0.000000e+00 0.000000e+00
1
Step 402000
Ar 9.238382e-01 0.000000e+00 0.000000e+00
1
Step 403000
Ar 1.144160e+00 0.000000e+00 0.000000e+00
1
Step 404000
Ar 9.527824e-01 0.000000e+00 0.000000e+00
1
Step 405000
Ar 9.687666e-01 0.000000e+00 0.000000e+00
1
Step 406000
Ar 1.004485e+00 0.000000e+00 0.000000e+00
1
Step 407000
Ar 1.120608e+00 0.000000e+00 0.000000e+00
1
Step 408000
Ar 1.082971e+00 0.000000e+00 0.000000e+00
1
Step 409000
Ar 9.249354e-01 0.000000e+00 0.000000e+00
1
Step 410000
Ar 1.026397e+00 0.000000e+00 0.000000e+00
1
Step 411000
Ar 1.024766e+00 0.000000e+00 0.000000e+00
1
Step 412000
Ar 1.084094e+00 0.000000e+00 0.000000e+00
1
Step 413000
Ar 1.019840e+00 0.000000e+00 0.000000e+00
1
Step 414000
Ar 1.086480e+00 0.000000e+00 0.000000e+00
1
Step 415000
Ar 9.611671e-01 0.000000e+00 0.000000e+00
1
Step 416000
Ar 8.996040e-01 0.000000e+00 0.000000e+00
1
Step 417000
Ar 9.599338e-01 0.000000e+00 0.000000e+00
1
Step 418000
Ar 1.015570e+00 0.000000e+00 0.000000e+00
1
Step 419000
Ar 7.590279e-01 0.000000e+00 0.000000e+00
1
Step 420000
Ar 9.669023e-01 0.000000e+00 0.000000e+00
1
Step 421000
Ar 9.322237e-01 0.000000e+00 0.000000e+00
1
Step 422000
Ar 9.418737e-01 0.000000e+00 0.000000e+00
1
Step 423000
Ar 8.781707e-01 0.000000e+00 0.000000e+00
1
Step 424000
Ar 8.461405e-01 0.000000e+00 0.000000e+00
1
Step 425000
Ar 9.468917e-01 0.000000e+00 0.000000e+00
1
Step 426000
Ar 6.482934e-01 0.000000e+00 0.000000e+00
1
Step 427000
Ar 8.600302e-01 0.000000e+00 0.000000e+00
1
Step 428000
Ar 7.670497e-01 0.000000e+00 0.000000e+00
1
Step 429000
Ar 9.518292e-01 0.000000e+00 0.000000e+00
1
Step 430000
Ar 9.041788e-01 0.000000e+00 0.000000e+00
1
Step 431000
Ar 8.062722e-01 0.000000e+00 0.000000e+00
1
Step 432000
Ar 8.682908e-01 0.000000e+00 0.000000e+00
1
Step 433000
Ar 9.147229e-01 0.000000e+00 0.000000e+00
1
Step 434000
Ar 9.200406e-01 0.000000e+00 0.000000e+00
1
Step 435000
Ar 9.099329e-01 0.000000e+00 0.000000e+00
1
Step 436000
Ar 9.395287e-01 0.000000e+00 0.000000e+00
1
Step 437000
Ar 8.760412e-01 0.000000e+00 0.000000e+00
1
Step 438000
Ar 9.379978e-01 0.000000e+00 0.000000e+00
1
Step 439000
Ar 8.174635e-01 0.000000e+00 0.000000e+00
1
Step 440000
Ar 9.054544e-01 0.000000e+00 0.000000e+00
1
Step 441000
Ar 9.208864e-01 0.000000e+00 0.000000e+00
1
Step 442000
Ar 7.450320e-01 0.000000e+00 0.000000e+00
1
Step 443000
Ar 7.642452e-01 0.000000e+00 0.000000e+00
1
Step 444000
Ar 9.412179e-01 0.000000e+00 0.000000e+00
1
Step 445000
Ar 8.755808e-01 0.000000e+00 0.000000e+00
1
Step 446000
Ar 8.595762e-01 0.000000e+00 0.000000e+00
1
Step 447000
Ar 8.995223e-01 0.000000e+00 0.000000e+00
1
Step 448000
Ar 9.171102e-01 0.000000e+00 0.000000e+00
1
Step 449000
Ar 9.057006e-01 0.000000e+00 0.000000e+00
1
Step 450000
Ar 8.038476e-01 0.000000e+00 0.000000e+00
1
Step 451000
Ar 6.542606e-01 0.000000e+00 0.000000e+00
1
Step 452000
Ar 9.549498e-01 0.000000e+00 0.000000e+00
1
Step 453000
Ar 7.938758e-01 0.000000e+00 0.000000e+00
1
Step 454000
Ar 9.482075e-01 0.000000e+00 0.000000e+00
1
Step 455000
Ar 9.211150e-01 0.000000e+00 0.000000e+00
1
Step 456000
Ar 8.439470e-01 0.000000e+00 0.000000e+00
1
Step 457000
Ar 9.412935e-01 0.000000e+00 0.000000e+00
1
Step 458000
Ar 9.411711e-01 0.000000e+00 0.000000e+00
1
Step 459000
Ar 7.164631e-01 0.000000e+00 0.000000e+00
1
Step 460000
Ar 8.878651e-01 0.000000e+00 0.000000e+00
1
Step 461000
Ar 8.373567e-01 0.000000e+00 0.000000e+00
1
Step 462000
Ar 9.355947e-01 0.000000e+00 0.000000e+00
1
Step 463000
Ar 8.345355e-01 0.000000e+00 0.000000e+00
1
Step 464000
Ar 8.430234e-01 0.000000e+00 0.000000e+00
1
Step 465000
Ar 8.826854e-01 0.000000e+00 0.000000e+00
1
Step 466000
Ar 7.410047e-01 0.000000e+00 0.000000e+00
1
Step 467000
Ar 7.565032e-01 0.000000e+00 0.000000e+00
1
Step 468000
Ar 8.971327e-01 0.000000e+00 0.000000e+00
1
Step 469000
Ar 9.162862e-01 0.000000e+00 0.000000e+00
1
Step 470000
Ar 9.237821e-01 0.000000e+00 0.000000e+00
1
Step 471000
Ar 9.406734e-01 0.000000e+00 0.000000e+00
1
Step 472000
Ar 8.518942e-01 0.000000e+00 0.000000e+00
1
Step 473000
Ar 7.994549e-01 0.000000e+00 0.000000e+00
1
Step 474000
Ar 9.444321e-01 0.000000e+00 0.000000e+00
1
Step 475000
Ar 8.668403e-01 0.000000e+00 0.000000e+00
1
Step 476000
Ar 8.989532e-01 0.000000e+00 0.000000e+00
1
Step 477000
Ar 9.116660e-01 0.000000e+00 0.000000e+00
1
Step 478000
Ar 9.421758e-01 0.000000e+00 0.000000e+00
1
Step 479000
Ar 9.412356e-01 0.000000e+00 0.000000e+00
1
Step 480000
Ar 8.981344e-01 0.000000e+00 0.000000e+00
1
Step 481000
Ar 5.005285e-01 0.000000e+00 0.000000e+00
1
Step 482000
Ar 7.793938e-01 0.000000e+00 0.000000e+00
1
Step 483000
Ar 8.597254e-01 0.000000e+00 0.000000e+00
1
Step 484000
Ar 7.636814e-01 0.000000e+00 0.000000e+00
1
Step 485000
Ar 8.133775e-01 0.000000e+00 0.000000e+00
1
Step 486000
Ar 9.060832e-01 0.000000e+00 0.000000e+00
1
Step 487000
Ar 7.397414e-01 0.000000e+00 0.000000e+00
1
Step 488000
Ar 9.250178e-01 0.000000e+00 0.000000e+00
1
Step 489000
Ar 9.003292e-01 0.000000e+00 0.000000e+00
1
Step 490000
Ar 8.540258e-01 0.000000e+00 0.000000e+00
1
Step 491000
Ar 7.547976e-01 0.000000e+00 0.000000e+00
1
Step 492000
Ar 8.917151e-01 0.000000e+00 0.000000e+00
1
Step 493000
Ar 5.773492e-01 0.000000e+00 0.000000e+00
1
Step 494000
Ar 9.421142e-01 0.000000e+00 0.000000e+00
1
Step 495000
Ar 9.374674e-01 0.000000e+00 0.000000e+00
1
Step 496000
Ar 8.999172e-01 0.000000e+00 0.000000e+00
1
Step 497000
Ar 8.817625e-01 0.000000e+00 0.000000e+00
1
Step 498000
Ar 8.613467e-01 0.000000e+00 0.000000e+00
1
Step 499000
Ar 8.054057e-01 0.000000e+00 0.000000e+00
1
Step 500000
Ar 8.599622e-01 0.000000e+00 0.000000e+00
1
Step 501000
Ar 9.397371e-01 0.000000e+00 0.000000e+00
1
Step 502000
Ar 9.256758e-01 0.000000e+00 0.000000e+00
1
Step 503000
Ar 7.886176e-01 0.000000e+00 0.000000e+00
1
Step 504000
Ar 9.310421e-01 0.000000e+00 0.000000e+00
1
Step 505000
Ar 9.394310e-01 0.000000e+00 0.000000e+00
1
Step 506000
Ar 8.331040e-01 0.000000e+00 0.000000e+00
1
Step 507000
Ar 9.333707e-01 0.000000e+00 0.000000e+00
1
Step 508000
Ar 8.218845e-01 0.000000e+00 0.000000e+00
1
Step 509000
Ar 9.396186e-01 0.000000e+00 0.000000e+00
1
Step 510000
Ar 8.829627e-01 0.000000e+00 0.000000e+00
1
Step 511000
Ar 7.949636e-01 0.000000e+00 0.000000e+00
1
Step 512000
Ar 9.274455e-01 0.000000e+00 0.000000e+00
1
Step 513000
Ar 9.290580e-01 0.000000e+00 0.000000e+00
1
Step 514000
Ar 9.085347e-01 0.000000e+00 0.000000e+00
1
Step 515000
Ar 8.242772e-01 0.000000e+00 0.000000e+00
1
Step 516000
Ar 9.072608e-01 0.000000e+00 0.000000e+00
1
Step 517000
Ar 9.467853e-01 0.000000e+00 0.000000e+00
1
Step 518000
Ar 8.824995e-01 0.000000e+00 0.000000e+00
1
Step 519000
Ar 9.492495e-01 0.000000e+00 0.000000e+00
1
Step 520000
Ar 9.267090e-01 0.000000e+00 0.000000e+00
1
Step 521000
Ar 9.309330e-01 0.000000e+00 0.000000e+00
1
Step 522000
Ar 9.280569e-01 0.000000e+00 0.000000e+00
1
Step 523000
Ar 9.171950e-01 0.000000e+00 0.000000e+00
1
Step 524000
Ar 8.660213e-01 0.000000e+00 0.000000e+00
1
Step 525000
Ar 8.921884e-01 0.000000e+00 0.000000e+00
1
Step 526000
Ar 8.575976e-01 0.000000e+00 0.000000e+00
1
Step 527000
Ar 9.476555e-01 0.000000e+00 0.000000e+00
1
Step 528000
Ar 9.065188e-01 0.000000e+00 0.000000e+00
1
Step 529000
Ar 8.883698e-01 0.000000e+00 0.000000e+00
1
Step 530000
Ar 7.843100e-01 0.000000e+00 0.000000e+00
1
Step 531000
Ar 8.478261e-01 0.000000e+00 0.000000e+00
1
Step 532000
Ar 9.568245e-01 0.000000e+00 0.000000e+00
1
Step 533000
Ar 8.633561e-01 0.000000e+00 0.000000e+00
1
Step 534000
Ar 8.867194e-01 0.000000e+00 0.000000e+00
1
Step 535000
Ar 9.435041e-01 0.000000e+00 0.000000e+00
1
Step 536000
Ar 9.447447e-01 0.000000e+00 0.000000e+00
1
Step 537000
Ar 9.205474e-01 0.000000e+00 0.000000e+00
1
Step 538000
Ar 9.555662e-01 0.000000e+00 0.000000e+00
1
Step 539000
Ar 8.282359e-01 0.000000e+00 0.000000e+00
1
Step 540000
Ar 8.412876e-01 0.000000e+00 0.000000e+00
1
Step 541000
Ar 9.000639e-01 0.000000e+00 0.000000e+00
1
Step 542000
Ar 9.131251e-01 0.000000e+00 0.000000e+00
1
Step 543000
Ar 7.876547e-01 0.000000e+00 0.000000e+00
1
Step 544000
Ar 9.333234e-01 0.000000e+00 0.000000e+00
1
Step 545000
Ar 8.892817e-01 0.000000e+00 0.000000e+00
1
Step 546000
Ar 9.434153e-01 0.000000e+00 0.000000e+00
1
Step 547000
Ar 9.134019e-01 0.000000e+00 0.000000e+00
1
Step 548000
Ar 9.418691e-01 0.000000e+00 0.000000e+00
1
Step 549000
Ar 9.119700e-01 0.000000e+00 0.000000e+00
1
Step 550000
Ar 8.042418e-01 0.000000e+00 0.000000e+00
1
Step 551000
Ar 8.998022e-01 0.000000e+00 0.000000e+00
1
Step 552000
Ar 9.122809e-01 0.000000e+00 0.000000e+00
1
Step 553000
Ar 9.233218e-01 0.000000e+00 0.000000e+00
1
Step 554000
Ar 7.548644e-01 0.000000e+00 0.000000e+00
1
Step 555000
Ar 8.614670e-01 0.000000e+00 0.000000e+00
1
Step 556000
Ar 8.875101e-01 0.000000e+00 0.000000e+00
1
Step 557000
Ar 9.328882e-01 0.000000e+00 0.000000e+00
1
Step 558000
Ar 8.933437e-01 0.000000e+00 0.000000e+00
1
Step 559000
Ar 9.443218e-01 0.000000e+00 0.000000e+00
1
Step 560000
Ar 9.293254e-01 0.000000e+00 0.000000e+00
1
Step 561000
Ar 8.746201e-01 0.000000e+00 0.000000e+00
1
Step 562000
Ar 8.424031e-01 0.000000e+00 0.000000e+00
1
Step 563000
Ar 9.271034e-01 0.000000e+00 0.000000e+00
1
Step 564000
Ar 8.206702e-01 0.000000e+00 0.000000e+00
1
Step 565000
Ar 7.785846e-01 0.000000e+00 0.000000e+00
1
Step 566000
Ar 8.243680e-01 0.000000e+00 0.000000e+00
1
Step 567000
Ar 9.142102e-01 0.000000e+00 0.000000e+00
1
Step 568000
Ar 8.635654e-01 0.000000e+00 0.000000e+00
1
Step 569000
Ar 8.586508e-01 0.000000e+00 0.000000e+00
1
Step 570000
Ar 7.205373e-01 0.000000e+00 0.000000e+00
1
Step 571000
Ar 8.983011e-01 0.000000e+00 0.000000e+00
1
Step 572000
Ar 8.772537e-01 0.000000e+00 0.000000e+00
1
Step 573000
Ar 8.287383e-01 0.000000e+00 0.000000e+00
1
Step 574000
Ar 7.680383e-01 0.000000e+00 0.000000e+00
1
Step 575000
Ar 8.933640e-01 0.000000e+00 0.000000e+00
1
Step 576000
Ar 8.956595e-01 0.000000e+00 0.000000e+00
1
Step 577000
Ar 7.522380e-01 0.000000e+00 0.000000e+00
1
Step 578000
Ar 7.336471e-01 0.000000e+00 0.000000e+00
1
Step 579000
Ar 8.581478e-01 0.000000e+00 0.000000e+00
1
Step 580000
Ar 7.650325e-01 0.000000e+00 0.000000e+00
1
Step 581000
Ar 8.727458e-01 0.000000e+00 0.000000e+00
1
Step 582000
Ar 7.191545e-01 0.000000e+00 0.000000e+00
1
Step 583000
Ar 9.392837e-01 0.000000e+00 0.000000e+00
1
Step 584000
Ar 9.327777e-01 0.000000e+00 0.000000e+00
1
Step 585000
Ar 8.451577e-01 0.000000e+00 0.000000e+00
1
Step 586000
Ar 8.519237e-01 0.000000e+00 0.000000e+00
1
Step 587000
Ar 9.175896e-01 0.000000e+00 0.000000e+00
1
Step 588000
Ar 7.926984e-01 0.000000e+00 0.000000e+00
1
Step 589000
Ar 8.925351e-01 0.000000e+00 0.000000e+00
1
Step 590000
Ar 9.492723e-01 0.000000e+00 0.000000e+00
1
Step 591000
Ar 7.497645e-01 0.000000e+00 0.000000e+00
1
Step 592000
Ar 9.071742e-01 0.000000e+00 0.000000e+00
1
Step 593000
Ar 8.077413e-01 0.000000e+00 0.000000e+00
1
Step 594000
Ar 9.241193e-01 0.000000e+00 0.000000e+00
1
Step 595000
Ar 7.926003e-01 0.000000e+00 0.000000e+00
1
Step 596000
Ar 9.508510e-01 0.000000e+00 0.000000e+00
1
Step 597000
Ar 8.142152e-01 0.000000e+00 0.000000e+00
1
Step 598000
Ar 8.143202e-01 0.000000e+00 0.000000e+00
1
Step 599000
Ar 7.885283e-01 0.000000e+00 0.000000e+00
1
Step 600000
Ar 8.157247e-01 0.000000e+00 0.000000e+00
1
Step 601000
Ar 8.587272e-01 0.000000e+00 0.000000e+00
1
Step 602000
Ar 8.910386e-01 0.000000e+00 0.000000e+00
1
Step 603000
Ar 8.970580e-01 0.000000e+00 0.000000e+00
1
Step 604000
Ar 8.801955e-01 0.000000e+00 0.000000e+00
1
Step 605000
Ar 9.333340e-01 0.000000e+00 0.000000e+00
1
Step 606000
Ar 9.233571e-01 0.000000e+00 0.000000e+00
1
Step 607000
Ar 8.893562e-01 0.000000e+00 0.000000e+00
1
Step 608000
Ar 9.002309e-01 0.000000e+00 0.000000e+00
1
Step 609000
Ar 8.526800e-01 0.000000e+00 0.000000e+00
1
Step 610000
Ar 8.792295e-01 0.000000e+00 0.000000e+00
1
Step 611000
Ar 8.572278e-01 0.000000e+00 0.000000e+00
1
Step 612000
Ar 8.766556e-01 0.000000e+00 0.000000e+00
1
Step 613000
Ar 9.409878e-01 0.000000e+00 0.000000e+00
1
Step 614000
Ar 9.515634e-01 0.000000e+00 0.000000e+00
1
Step 615000
Ar 8.962958e-01 0.000000e+00 0.000000e+00
1
Step 616000
Ar 8.080554e-01 0.000000e+00 0.000000e+00
1
Step 617000
Ar 8.074619e-01 0.000000e+00 0.000000e+00
1
Step 618000
Ar 8.454672e-01 0.000000e+00 0.000000e+00
1
Step 619000
Ar 9.335272e-01 0.000000e+00 0.000000e+00
1
Step 620000
Ar 9.343380e-01 0.000000e+00 0.000000e+00
1
Step 621000
Ar 8.344905e-01 0.000000e+00 0.000000e+00
1
Step 622000
Ar 9.118558e-01 0.000000e+00 0.000000e+00
1
Step 623000
Ar 9.446063e-01 0.000000e+00 0.000000e+00
1
Step 624000
Ar 9.168785e-01 0.000000e+00 0.000000e+00
1
Step 625000
Ar 9.446750e-01 0.000000e+00 0.000000e+00
1
Step 626000
Ar 7.756025e-01 0.000000e+00 0.000000e+00
1
Step 627000
Ar 9.248349e-01 0.000000e+00 0.000000e+00
1
Step 628000
Ar 7.959126e-01 0.000000e+00 0.000000e+00
1
Step 629000
Ar 8.752707e-01 0.000000e+00 0.000000e+00
1
Step 630000
Ar 8.845198e-01 0.000000e+00 0.000000e+00
1
Step 631000
Ar 9.050538e-01 0.000000e+00 0.000000e+00
1
Step 632000
Ar 9.285552e-01 0.000000e+00 0.000000e+00
1
Step 633000
Ar 7.956230e-01 0.000000e+00 0.000000e+00
1
Step 634000
Ar 8.578888e-01 0.000000e+00 0.000000e+00
1
Step 635000
Ar 9.240465e-01 0.000000e+00 0.000000e+00
1
Step 636000
Ar 8.296954e-01 0.000000e+00 0.000000e+00
1
Step 637000
Ar 8.139091e-01 0.000000e+00 0.000000e+00
1
Step 638000
Ar 4.967396e-01 0.000000e+00 0.000000e+00
1
Step 639000
Ar 8.658965e-01 0.000000e+00 0.000000e+00
1
Step 640000
Ar 6.110183e-01 0.000000e+00 0.000000e+00
1
Step 641000
Ar 8.880596e-01 0.000000e+00 0.000000e+00
1
Step 642000
Ar 9.055200e-01 0.000000e+00 0.000000e+00
1
Step 643000
Ar 8.497834e-01 0.000000e+00 0.000000e+00
1
Step 644000
Ar 7.413312e-01 0.000000e+00 0.000000e+00
1
Step 645000
Ar 8.901720e-01 0.000000e+00 0.000000e+00
1
Step 646000
Ar 8.714243e-01 0.000000e+00 0.000000e+00
1
Step 647000
Ar 7.404974e-01 0.000000e+00 0.000000e+00
1
Step 648000
Ar 9.380604e-01 0.000000e+00 0.000000e+00
1
Step 649000
Ar 9.451595e-01 0.000000e+00 0.000000e+00
1
Step 650000
Ar 9.119605e-01 0.000000e+00 0.000000e+00
1
Step 651000
Ar 9.366996e-01 0.000000e+00 0.000000e+00
1
Step 652000
Ar 8.608918e-01 0.000000e+00 0.000000e+00
1
Step 653000
Ar 8.889386e-01 0.000000e+00 0.000000e+00
1
Step 654000
Ar 8.649135e-01 0.000000e+00 0.000000e+00
1
Step 655000
Ar 8.261618e-01 0.000000e+00 0.000000e+00
1
Step 656000
Ar 8.787406e-01 0.000000e+00 0.000000e+00
1
Step 657000
Ar 9.157959e-01 0.000000e+00 0.000000e+00
1
Step 658000
Ar 8.352263e-01 0.000000e+00 0.000000e+00
1
Step 659000
Ar 7.766713e-01 0.000000e+00 0.000000e+00
1
Step 660000
Ar 8.150843e-01 0.000000e+00 0.000000e+00
1
Step 661000
Ar 8.484183e-01 0.000000e+00 0.000000e+00
1
Step 662000
Ar 8.092375e-01 0.000000e+00 0.000000e+00
1
Step 663000
Ar 9.463974e-01 0.000000e+00 0.000000e+00
1
Step 664000
Ar 9.014054e-01 0.000000e+00 0.000000e+00
1
Step 665000
Ar 8.866422e-01 0.000000e+00 0.000000e+00
1
Step 666000
Ar 9.056600e-01 0.000000e+00 0.000000e+00
1
Step 667000
Ar 9.343519e-01 0.000000e+00 0.000000e+00
1
Step 668000
Ar 9.336050e-01 0.000000e+00 0.000000e+00
1
Step 669000
Ar 7.890067e-01 0.000000e+00 0.000000e+00
1
Step 670000
Ar 7.893400e-01 0.000000e+00 0.000000e+00
1
Step 671000
Ar 8.957020e-01 0.000000e+00 0.000000e+00
1
Step 672000
Ar 8.924826e-01 0.000000e+00 0.000000e+00
1
Step 673000
Ar 7.506008e-01 0.000000e+00 0.000000e+00
1
Step 674000
Ar 8.995903e-01 0.000000e+00 0.000000e+00
1
Step 675000
Ar 9.084857e-01 0.000000e+00 0.000000e+00
1
Step 676000
Ar 9.167840e-01 0.000000e+00 0.000000e+00
1
Step 677000
Ar 8.545239e-01 0.000000e+00 0.000000e+00
1
Step 678000
Ar 9.414283e-01 0.000000e+00 0.000000e+00
1
Step 679000
Ar 8.229724e-01 0.000000e+00 0.000000e+00
1
Step 680000
Ar 7.573504e-01 0.000000e+00 0.000000e+00
1
Step 681000
Ar 9.500249e-01 0.000000e+00 0.000000e+00
1
Step 682000
Ar 8.924586e-01 0.000000e+00 0.000000e+00
1
Step 683000
Ar 9.168418e-01 0.000000e+00 0.000000e+00
1
Step 684000
Ar 9.277939e-01 0.000000e+00 0.000000e+00
1
Step 685000
Ar 8.746123e-01 0.000000e+00 0.000000e+00
1
Step 686000
Ar 9.351729e-01 0.000000e+00 0.000000e+00
1
Step 687000
Ar 8.190451e-01 0.000000e+00 0.000000e+00
1
Step 688000
Ar 7.120915e-01 0.000000e+00 0.000000e+00
1
Step 689000
Ar 7.720506e-01 0.000000e+00 0.000000e+00
1
Step 690000
Ar 9.271390e-01 0.000000e+00 0.000000e+00
1
Step 691000
Ar 7.780964e-01 0.000000e+00 0.000000e+00
1
Step 692000
Ar 9.543375e-01 0.000000e+00 0.000000e+00
1
Step 693000
Ar 8.584688e-01 0.000000e+00 0.000000e+00
1
Step 694000
Ar 8.018954e-01 0.000000e+00 0.000000e+00
1
Step 695000
Ar 9.234783e-01 0.000000e+00 0.000000e+00
1
Step 696000
Ar 9.225749e-01 0.000000e+00 0.000000e+00
1
Step 697000
Ar 9.347315e-01 0.000000e+00 0.000000e+00
1
Step 698000
Ar 8.901654e-01 0.000000e+00 0.000000e+00
1
Step 699000
Ar 9.075269e-01 0.000000e+00 0.000000e+00
1
Step 700000
Ar 9.346993e-01 0.000000e+00 0.000000e+00
1
Step 701000
Ar 8.534762e-01 0.000000e+00 0.000000e+00
1
Step 702000
Ar 9.353529e-01 0.000000e+00 0.000000e+00
1
Step 703000
Ar 9.277593e-01 0.000000e+00 0.000000e+00
1
Step 704000
Ar 9.306795e-01 0.000000e+00 0.000000e+00
1
Step 705000
Ar 8.910088e-01 0.000000e+00 0.000000e+00
1
Step 706000
Ar 7.716132e-01 0.000000e+00 0.000000e+00
1
Step 707000
Ar 8.976766e-01 0.000000e+00 0.000000e+00
1
Step 708000
Ar 9.505861e-01 0.000000e+00 0.000000e+00
1
Step 709000
Ar 8.978737e-01 0.000000e+00 0.000000e+00
1
Step 710000
Ar 9.449326e-01 0.000000e+00 0.000000e+00
1
Step 711000
Ar 8.572420e-01 0.000000e+00 0.000000e+00
1
Step 712000
Ar 7.788664e-01 0.000000e+00 0.000000e+00
1
Step 713000
Ar 9.238421e-01 0.000000e+00 0.000000e+00
1
Step 714000
Ar 8.948189e-01 0.000000e+00 0.000000e+00
1
Step 715000
Ar 7.560213e-01 0.000000e+00 0.000000e+00
1
Step 716000
Ar 9.245973e-01 0.000000e+00 0.000000e+00
1
Step 717000
Ar 9.456323e-01 0.000000e+00 0.000000e+00
1
Step 718000
Ar 8.130455e-01 0.000000e+00 0.000000e+00
1
Step 719000
Ar 9.594299e-01 0.000000e+00 0.000000e+00
1
Step 720000
Ar 8.798775e-01 0.000000e+00 0.000000e+00
1
Step 721000
Ar 9.114045e-01 0.000000e+00 0.000000e+00
1
Step 722000
Ar 8.220372e-01 0.000000e+00 0.000000e+00
1
Step 723000
Ar 8.734532e-01 0.000000e+00 0.000000e+00
1
Step 724000
Ar 8.758979e-01 0.000000e+00 0.000000e+00
1
Step 725000
Ar 9.379028e-01 0.000000e+00 0.000000e+00
1
Step 726000
Ar 8.669118e-01 0.000000e+00 0.000000e+00
1
Step 727000
Ar 8.160153e-01 0.000000e+00 0.000000e+00
1
Step 728000
Ar 8.355907e-01 0.000000e+00 0.000000e+00
1
Step 729000
Ar 8.891993e-01 0.000000e+00 0.000000e+00
1
Step 730000
Ar 9.550269e-01 0.000000e+00 0.000000e+00
1
Step 731000
Ar 5.849209e-01 0.000000e+00 0.000000e+00
1
Step 732000
Ar 8.730145e-01 0.000000e+00 0.000000e+00
1
Step 733000
Ar 9.303454e-01 0.000000e+00 0.000000e+00
1
Step 734000
Ar 8.830283e-01 0.000000e+00 0.000000e+00
1
Step 735000
Ar 9.218573e-01 0.000000e+00 0.000000e+00
1
Step 736000
Ar 8.610818e-01 0.000000e+00 0.000000e+00
1
Step 737000
Ar 9.233263e-01 0.000000e+00 0.000000e+00
1
Step 738000
Ar 7.279514e-01 0.000000e+00 0.000000e+00
1
Step 739000
Ar 9.146522e-01 0.000000e+00 0.000000e+00
1
Step 740000
Ar 8.076395e-01 0.000000e+00 0.000000e+00
1
Step 741000
Ar 8.810303e-01 0.000000e+00 0.000000e+00
1
Step 742000
Ar 9.463104e-01 0.000000e+00 0.000000e+00
1
Step 743000
Ar 9.225276e-01 0.000000e+00 0.000000e+00
1
Step 744000
Ar 9.451751e-01 0.000000e+00 0.000000e+00
1
Step 745000
Ar 9.446143e-01 0.000000e+00 0.000000e+00
1
Step 746000
Ar 8.904298e-01 0.000000e+00 0.000000e+00
1
Step 747000
Ar 9.458049e-01 0.000000e+00 0.000000e+00
1
Step 748000
Ar 9.193107e-01 0.000000e+00 0.000000e+00
1
Step 749000
Ar 9.360986e-01 0.000000e+00 0.000000e+00
1
Step 750000
Ar 7.233119e-01 0.000000e+00 0.000000e+00
1
Step 751000
Ar 8.918525e-01 0.000000e+00 0.000000e+00
1
Step 752000
Ar 7.506498e-01 0.000000e+00 0.000000e+00
1
Step 753000
Ar 9.254091e-01 0.000000e+00 0.000000e+00
1
Step 754000
Ar 9.031328e-01 0.000000e+00 0.000000e+00
1
Step 755000
Ar 8.506662e-01 0.000000e+00 0.000000e+00
1
Step 756000
Ar 9.368715e-01 0.000000e+00 0.000000e+00
1
Step 757000
Ar 9.194229e-01 0.000000e+00 0.000000e+00
1
Step 758000
Ar 6.914822e-01 0.000000e+00 0.000000e+00
1
Step 759000
Ar 8.150706e-01 0.000000e+00 0.000000e+00
1
Step 760000
Ar 8.536317e-01 0.000000e+00 0.000000e+00
1
Step 761000
Ar 8.808836e-01 0.000000e+00 0.000000e+00
1
Step 762000
Ar 8.927881e-01 0.000000e+00 0.000000e+00
1
Step 763000
Ar 9.113000e-01 0.000000e+00 0.000000e+00
1
Step 764000
Ar 8.308552e-01 0.000000e+00 0.000000e+00
1
Step 765000
Ar 9.326157e-01 0.000000e+00 0.000000e+00
1
Step 766000
Ar 9.153358e-01 0.000000e+00 0.000000e+00
1
Step 767000
Ar 7.283181e-01 0.000000e+00 0.000000e+00
1
Step 768000
Ar 8.372118e-01 0.000000e+00 0.000000e+00
1
Step 769000
Ar 6.768092e-01 0.000000e+00 0.000000e+00
1
Step 770000
Ar 8.246931e-01 0.000000e+00 0.000000e+00
1
Step 771000
Ar 9.330393e-01 0.000000e+00 0.000000e+00
1
Step 772000
Ar 7.633329e-01 0.000000e+00 0.000000e+00
1
Step 773000
Ar 7.570447e-01 0.000000e+00 0.000000e+00
1
Step 774000
Ar 8.162431e-01 0.000000e+00 0.000000e+00
1
Step 775000
Ar 9.365885e-01 0.000000e+00 0.000000e+00
1
Step 776000
Ar 8.918345e-01 0.000000e+00 0.000000e+00
1
Step 777000
Ar 9.240933e-01 0.000000e+00 0.000000e+00
1
Step 778000
Ar 6.015449e-01 0.000000e+00 0.000000e+00
1
Step 779000
Ar 9.562561e-01 0.000000e+00 0.000000e+00
1
Step 780000
Ar 9.337668e-01 0.000000e+00 0.000000e+00
1
Step 781000
Ar 8.882844e-01 0.000000e+00 0.000000e+00
1
Step 782000
Ar 9.542189e-01 0.000000e+00 0.000000e+00
1
Step 783000
Ar 9.496414e-01 0.000000e+00 0.000000e+00
1
Step 784000
Ar 9.241245e-01 0.000000e+00 0.000000e+00
1
Step 785000
Ar 6.753393e-01 0.000000e+00 0.000000e+00
1
Step 786000
Ar 8.850899e-01 0.000000e+00 0.000000e+00
1
Step 787000
Ar 9.237288e-01 0.000000e+00 0.000000e+00
1
Step 788000
Ar 8.115726e-01 0.000000e+00 0.000000e+00
1
Step 789000
Ar 8.698345e-01 0.000000e+00 0.000000e+00
1
Step 790000
Ar 8.770624e-01 0.000000e+00 0.000000e+00
1
Step 791000
Ar 7.639465e-01 0.000000e+00 0.000000e+00
1
Step 792000
Ar 7.761063e-01 0.000000e+00 0.000000e+00
1
Step 793000
Ar 6.894642e-01 0.000000e+00 0.000000e+00
1
Step 794000
Ar 9.190398e-01 0.000000e+00 0.000000e+00
1
Step 795000
Ar 7.976596e-01 0.000000e+00 0.000000e+00
1
Step 796000
Ar 9.047356e-01 0.000000e+00 0.000000e+00
1
Step 797000
Ar 9.093181e-01 0.000000e+00 0.000000e+00
1
Step 798000
Ar 7.941556e-01 0.000000e+00 0.000000e+00
1
Step 799000
Ar 8.657627e-01 0.000000e+00 0.000000e+00
1
Step 800000
Ar 8.651753e-01 0.000000e+00 0.000000e+00
1
Step 801000
Ar 7.616796e-01 0.000000e+00 0.000000e+00
1
Step 802000
Ar 9.153683e-01 0.000000e+00 0.000000e+00
1
Step 803000
Ar 8.819111e-01 0.000000e+00 0.000000e+00
1
Step 804000
Ar 8.743695e-01 0.000000e+00 0.000000e+00
1
Step 805000
Ar 8.737689e-01 0.000000e+00 0.000000e+00
1
Step 806000
Ar 7.983272e-01 0.000000e+00 0.000000e+00
1
Step 807000
Ar 9.120703e-01 0.000000e+00 0.000000e+00
1
Step 808000
Ar 8.435800e-01 0.000000e+00 0.000000e+00
1
Step 809000
Ar 9.433654e-01 0.000000e+00 0.000000e+00
1
Step 810000
Ar 9.017060e-01 0.000000e+00 0.000000e+00
1
Step 811000
Ar 8.162699e-01 0.000000e+00 0.000000e+00
1
Step 812000
Ar 7.761933e-01 0.000000e+00 0.000000e+00
1
Step 813000
Ar 8.741368e-01 0.000000e+00 0.000000e+00
1
Step 814000
Ar 7.528786e-01 0.000000e+00 0.000000e+00
1
Step 815000
Ar 8.476106e-01 0.000000e+00 0.000000e+00
1
Step 816000
Ar 8.441534e-01 0.000000e+00 0.000000e+00
1
Step 817000
Ar 8.961633e-01 0.000000e+00 0.000000e+00
1
Step 818000
Ar 7.195001e-01 0.000000e+00 0.000000e+00
1
Step 819000
Ar 7.988129e-01 0.000000e+00 0.000000e+00
1
Step 820000
Ar 8.979707e-01 0.000000e+00 0.000000e+00
1
Step 821000
Ar 9.447724e-01 0.000000e+00 0.000000e+00
1
Step 822000
Ar 9.201061e-01 0.000000e+00 0.000000e+00
1
Step 823000
Ar 7.701310e-01 0.000000e+00 0.000000e+00
1
Step 824000
Ar 9.163210e-01 0.000000e+00 0.000000e+00
1
Step 825000
Ar 9.061467e-01 0.000000e+00 0.000000e+00
1
Step 826000
Ar 9.432082e-01 0.000000e+00 0.000000e+00
1
Step 827000
Ar 8.007310e-01 0.000000e+00 0.000000e+00
1
Step 828000
Ar 8.925678e-01 0.000000e+00 0.000000e+00
1
Step 829000
Ar 9.391594e-01 0.000000e+00 0.000000e+00
1
Step 830000
Ar 7.492321e-01 0.000000e+00 0.000000e+00
1
Step 831000
Ar 9.016457e-01 0.000000e+00 0.000000e+00
1
Step 832000
Ar 6.778058e-01 0.000000e+00 0.000000e+00
1
Step 833000
Ar 9.388179e-01 0.000000e+00 0.000000e+00
1
Step 834000
Ar 8.497335e-01 0.000000e+00 0.000000e+00
1
Step 835000
Ar 9.047714e-01 0.000000e+00 0.000000e+00
1
Step 836000
Ar 8.000279e-01 0.000000e+00 0.000000e+00
1
Step 837000
Ar 8.609902e-01 0.000000e+00 0.000000e+00
1
Step 838000
Ar 7.726012e-01 0.000000e+00 0.000000e+00
1
Step 839000
Ar 9.137549e-01 0.000000e+00 0.000000e+00
1
Step 840000
Ar 8.577851e-01 0.000000e+00 0.000000e+00
1
Step 841000
Ar 9.403996e-01 0.000000e+00 0.000000e+00
1
Step 842000
Ar 8.596698e-01 0.000000e+00 0.000000e+00
1
Step 843000
Ar 9.093911e-01 0.000000e+00 0.000000e+00
1
Step 844000
Ar 9.529678e-01 0.000000e+00 0.000000e+00
1
Step 845000
Ar 8.707028e-01 0.000000e+00 0.000000e+00
1
Step 846000
Ar 8.421777e-01 0.000000e+00 0.000000e+00
1
Step 847000
Ar 9.444677e-01 0.000000e+00 0.000000e+00
1
Step 848000
Ar 7.053627e-01 0.000000e+00 0.000000e+00
1
Step 849000
Ar 8.215760e-01 0.000000e+00 0.000000e+00
1
Step 850000
Ar 9.362560e-01 0.000000e+00 0.000000e+00
1
Step 851000
Ar 9.269490e-01 0.000000e+00 0.000000e+00
1
Step 852000
Ar 8.316296e-01 0.000000e+00 0.000000e+00
1
Step 853000
Ar 8.075872e-01 0.000000e+00 0.000000e+00
1
Step 854000
Ar 9.166344e-01 0.000000e+00 0.000000e+00
1
Step 855000
Ar 7.779719e-01 0.000000e+00 0.000000e+00
1
Step 856000
Ar 9.194279e-01 0.000000e+00 0.000000e+00
1
Step 857000
Ar 8.256800e-01 0.000000e+00 0.000000e+00
1
Step 858000
Ar 9.018018e-01 0.000000e+00 0.000000e+00
1
Step 859000
Ar 9.376470e-01 0.000000e+00 0.000000e+00
1
Step 860000
Ar 9.022925e-01 0.000000e+00 0.000000e+00
1
Step 861000
Ar 9.011954e-01 0.000000e+00 0.000000e+00
1
Step 862000
Ar 8.163007e-01 0.000000e+00 0.000000e+00
1
Step 863000
Ar 7.757363e-01 0.000000e+00 0.000000e+00
1
Step 864000
Ar 8.676994e-01 0.000000e+00 0.000000e+00
1
Step 865000
Ar 7.909924e-01 0.000000e+00 0.000000e+00
1
Step 866000
Ar 9.522161e-01 0.000000e+00 0.000000e+00
1
Step 867000
Ar 8.942973e-01 0.000000e+00 0.000000e+00
1
Step 868000
Ar 8.799299e-01 0.000000e+00 0.000000e+00
1
Step 869000
Ar 9.195684e-01 0.000000e+00 0.000000e+00
1
Step 870000
Ar 8.001872e-01 0.000000e+00 0.000000e+00
1
Step 871000
Ar 8.985367e-01 0.000000e+00 0.000000e+00
1
Step 872000
Ar 8.248441e-01 0.000000e+00 0.000000e+00
1
Step 873000
Ar 9.467483e-01 0.000000e+00 0.000000e+00
1
Step 874000
Ar 8.333958e-01 0.000000e+00 0.000000e+00
1
Step 875000
Ar 8.367900e-01 0.000000e+00 0.000000e+00
1
Step 876000
Ar 7.361973e-01 0.000000e+00 0.000000e+00
1
Step 877000
Ar 7.729328e-01 0.000000e+00 0.000000e+00
1
Step 878000
Ar 9.184004e-01 0.000000e+00 0.000000e+00
1
Step 879000
Ar 9.322107e-01 0.000000e+00 0.000000e+00
1
Step 880000
Ar 8.907700e-01 0.000000e+00 0.000000e+00
1
Step 881000
Ar 9.333096e-01 0.000000e+00 0.000000e+00
1
Step 882000
Ar 8.965025e-01 0.000000e+00 0.000000e+00
1
Step 883000
Ar 8.976883e-01 0.000000e+00 0.000000e+00
1
Step 884000
Ar 8.989956e-01 0.000000e+00 0.000000e+00
1
Step 885000
Ar 9.514566e-01 0.000000e+00 0.000000e+00
1
Step 886000
Ar 9.460948e-01 0.000000e+00 0.000000e+00
1
Step 887000
Ar 8.560236e-01 0.000000e+00 0.000000e+00
1
Step 888000
Ar 9.475326e-01 0.000000e+00 0.000000e+00
1
Step 889000
Ar 8.274583e-01 0.000000e+00 0.000000e+00
1
Step 890000
Ar 9.269138e-01 0.000000e+00 0.000000e+00
1
Step 891000
Ar 8.932396e-01 0.000000e+00 0.000000e+00
1
Step 892000
Ar 8.761608e-01 0.000000e+00 0.000000e+00
1
Step 893000
Ar 7.981133e-01 0.000000e+00 0.000000e+00
1
Step 894000
Ar 7.704325e-01 0.000000e+00 0.000000e+00
1
Step 895000
Ar 8.691947e-01 0.000000e+00 0.000000e+00
1
Step 896000
Ar 6.188469e-01 0.000000e+00 0.000000e+00
1
Step 897000
Ar 9.015412e-01 0.000000e+00 0.000000e+00
1
Step 898000
Ar 9.150327e-01 0.000000e+00 0.000000e+00
1
Step 899000
Ar 7.475957e-01 0.000000e+00 0.000000e+00
1
Step 900000
Ar 8.567698e-01 0.000000e+00 0.000000e+00
1
Step 901000
Ar 8.522249e-01 0.000000e+00 0.000000e+00
1
Step 902000
Ar 8.260866e-01 0.000000e+00 0.000000e+00
1
Step 903000
Ar 9.375626e-01 0.000000e+00 0.000000e+00
1
Step 904000
Ar 8.031299e-01 0.000000e+00 0.000000e+00
1
Step 905000
Ar 9.189419e-01 0.000000e+00 0.000000e+00
1
Step 906000
Ar 8.402199e-01 0.000000e+00 0.000000e+00
1
Step 907000
Ar 8.349775e-01 0.000000e+00 0.000000e+00
1
Step 908000
Ar 9.452186e-01 0.000000e+00 0.000000e+00
1
Step 909000
Ar 8.428083e-01 0.000000e+00 0.000000e+00
1
Step 910000
Ar 8.837524e-01 0.000000e+00 0.000000e+00
1
Step 911000
Ar 7.714130e-01 0.000000e+00 0.000000e+00
1
Step 912000
Ar 9.228508e-01 0.000000e+00 0.000000e+00
1
Step 913000
Ar 9.257560e-01 0.000000e+00 0.000000e+00
1
Step 914000
Ar 8.900612e-01 0.000000e+00 0.000000e+00
1
Step 915000
Ar 5.407478e-01 0.000000e+00 0.000000e+00
1
Step 916000
Ar 9.242656e-01 0.000000e+00 0.000000e+00
1
Step 917000
Ar 9.518150e-01 0.000000e+00 0.000000e+00
1
Step 918000
Ar 9.218971e-01 0.000000e+00 0.000000e+00
1
Step 919000
Ar 9.135681e-01 0.000000e+00 0.000000e+00
1
Step 920000
Ar 8.615534e-01 0.000000e+00 0.000000e+00
1
Step 921000
Ar 9.456562e-01 0.000000e+00 0.000000e+00
1
Step 922000
Ar 9.446627e-01 0.000000e+00 0.000000e+00
1
Step 923000
Ar 7.372977e-01 0.000000e+00 0.000000e+00
1
Step 924000
Ar 9.369138e-01 0.000000e+00 0.000000e+00
1
Step 925000
Ar 8.213032e-01 0.000000e+00 0.000000e+00
1
Step 926000
Ar 8.880675e-01 0.000000e+00 0.000000e+00
1
Step 927000
Ar 9.000197e-01 0.000000e+00 0.000000e+00
1
Step 928000
Ar 8.111921e-01 0.000000e+00 0.000000e+00
1
Step 929000
Ar 8.540155e-01 0.000000e+00 0.000000e+00
1
Step 930000
Ar 8.941690e-01 0.000000e+00 0.000000e+00
1
Step 931000
Ar 8.518198e-01 0.000000e+00 0.000000e+00
1
Step 932000
Ar 8.182516e-01 0.000000e+00 0.000000e+00
1
Step 933000
Ar 7.491056e-01 0.000000e+00 0.000000e+00
1
Step 934000
Ar 9.075721e-01 0.000000e+00 0.000000e+00
1
Step 935000
Ar 9.324873e-01 0.000000e+00 0.000000e+00
1
Step 936000
Ar 8.040329e-01 0.000000e+00 0.000000e+00
1
Step 937000
Ar 8.903719e-01 0.000000e+00 0.000000e+00
1
Step 938000
Ar 8.639790e-01 0.000000e+00 0.000000e+00
1
Step 939000
Ar 8.887849e-01 0.000000e+00 0.000000e+00
1
Step 940000
Ar 8.248377e-01 0.000000e+00 0.000000e+00
1
Step 941000
Ar 8.576148e-01 0.000000e+00 0.000000e+00
1
Step 942000
Ar 9.294938e-01 0.000000e+00 0.000000e+00
1
Step 943000
Ar 9.438891e-01 0.000000e+00 0.000000e+00
1
Step 944000
Ar 8.648803e-01 0.000000e+00 0.000000e+00
1
Step 945000
Ar 8.863649e-01 0.000000e+00 0.000000e+00
1
Step 946000
Ar 9.436985e-01 0.000000e+00 0.000000e+00
1
Step 947000
Ar 8.758041e-01 0.000000e+00 0.000000e+00
1
Step 948000
Ar 9.082351e-01 0.000000e+00 0.000000e+00
1
Step 949000
Ar 8.678440e-01 0.000000e+00 0.000000e+00
1
Step 950000
Ar 9.116911e-01 0.000000e+00 0.000000e+00
1
Step 951000
Ar 8.562589e-01 0.000000e+00 0.000000e+00
1
Step 952000
Ar 9.464378e-01 0.000000e+00 0.000000e+00
1
Step 953000
Ar 9.200529e-01 0.000000e+00 0.000000e+00
1
Step 954000
Ar 8.682968e-01 0.000000e+00 0.000000e+00
1
Step 955000
Ar 8.810205e-01 0.000000e+00 0.000000e+00
1
Step 956000
Ar 8.890363e-01 0.000000e+00 0.000000e+00
1
Step 957000
Ar 8.601728e-01 0.000000e+00 0.000000e+00
1
Step 958000
Ar 9.123594e-01 0.000000e+00 0.000000e+00
1
Step 959000
Ar 7.530377e-01 0.000000e+00 0.000000e+00
1
Step 960000
Ar 7.493488e-01 0.000000e+00 0.000000e+00
1
Step 961000
Ar 6.940189e-01 0.000000e+00 0.000000e+00
1
Step 962000
Ar 7.813408e-01 0.000000e+00 0.000000e+00
1
Step 963000
Ar 9.434052e-01 0.000000e+00 0.000000e+00
1
Step 964000
Ar 7.662308e-01 0.000000e+00 0.000000e+00
1
Step 965000
Ar 9.234517e-01 0.000000e+00 0.000000e+00
1
Step 966000
Ar 9.129632e-01 0.000000e+00 0.000000e+00
1
Step 967000
Ar 8.130477e-01 0.000000e+00 0.000000e+00
1
Step 968000
Ar 8.059990e-01 0.000000e+00 0.000000e+00
1
Step 969000
Ar 9.497250e-01 0.000000e+00 0.000000e+00
1
Step 970000
Ar 9.356965e-01 0.000000e+00 0.000000e+00
1
Step 971000
Ar 9.404951e-01 0.000000e+00 0.000000e+00
1
Step 972000
Ar 7.681034e-01 0.000000e+00 0.000000e+00
1
Step 973000
Ar 9.132909e-01 0.000000e+00 0.000000e+00
1
Step 974000
Ar 9.524741e-01 0.000000e+00 0.000000e+00
1
Step 975000
Ar 8.626764e-01 0.000000e+00 0.000000e+00
1
Step 976000
Ar 7.415434e-01 0.000000e+00 0.000000e+00
1
Step 977000
Ar 8.666035e-01 0.000000e+00 0.000000e+00
1
Step 978000
Ar 9.242257e-01 0.000000e+00 0.000000e+00
1
Step 979000
Ar 8.890764e-01 0.000000e+00 0.000000e+00
1
Step 980000
Ar 8.921671e-01 0.000000e+00 0.000000e+00
1
Step 981000
Ar 8.830319e-01 0.000000e+00 0.000000e+00
1
Step 982000
Ar 9.016764e-01 0.000000e+00 0.000000e+00
1
Step 983000
Ar 8.841799e-01 0.000000e+00 0.000000e+00
1
Step 984000
Ar 9.482048e-01 0.000000e+00 0.000000e+00
1
Step 985000
Ar 8.139452e-01 0.000000e+00 0.000000e+00
1
Step 986000
Ar 9.477852e-01 0.000000e+00 0.000000e+00
1
Step 987000
Ar 9.392137e-01 0.000000e+00 0.000000e+00
1
Step 988000
Ar 9.112288e-01 0.000000e+00 0.000000e+00
1
Step 989000
Ar 8.687465e-01 0.000000e+00 0.000000e+00
1
Step 990000
Ar 9.318521e-01 0.000000e+00 0.000000e+00
1
Step 991000
Ar 8.928633e-01 0.000000e+00 0.000000e+00
1
Step 992000
Ar 9.449204e-01 0.000000e+00 0.000000e+00
1
Step 993000
Ar 9.416769e-01 0.000000e+00 0.000000e+00
1
Step 994000
Ar 9.380290e-01 0.000000e+00 0.000000e+00
1
Step 995000
Ar 8.282427e-01 0.000000e+00 0.000000e+00
1
Step 996000
Ar 8.407958e-01 0.000000e+00 0.000000e+00
1
Step 997000
Ar 8.560629e-01 0.000000e+00 0.000000e+00
1
Step 998000
Ar 8.327527e-01 0.000000e+00 0.000000e+00
1
Step 999000
Ar 9.351640e-01 0.000000e+00 0.000000e+00
