1
Step 120000
Ar 1.168642e+00 0.000000e+00 0.000000e+00
1
Step 121000
Ar 1.014017e+00 0.000000e+00 0.000000e+00
1
Step 122000
Ar 1.023950e+00 0.000000e+00 0.000000e+00
1
Step 123000
Ar 9.615667e-01 0.000000e+00 0.000000e+00
1
Step 124000
Ar 9.025190e-01 0.000000e+00 0.000000e+00
1
Step 125000
Ar 8.080539e-01 0.000000e+00 0.000000e+00
1
Step 126000
Ar 1.016322e+00 0.000000e+00 0.000000e+00
1
Step 127000
Ar 1.129825e+00 0.000000e+00 0.000000e+00
1
Step 128000
Ar 1.072749e+00 0.000000e+00 0.000000e+00
1
Step 129000
Ar 8.507509e-01 0.000000e+00 0.000000e+00
1
Step 130000
Ar 9.557892e-01 0.000000e+00 0.000000e+00
1
Step 131000
Ar 1.095463e+00 0.000000e+00 0.000000e+00
1
Step 132000
Ar 6.678162e-01 0.000000e+00 0.000000e+00
1
Step 133000
Ar 9.661793e-01 0.000000e+00 0.000000e+00
1
Step 134000
Ar 1.101046e+00 0.000000e+00 0.000000e+00
1
Step 135000
Ar 8.344282e-01 0.000000e+00 0.000000e+00
1
Step 136000
Ar 1.054317e+00 0.000000e+00 0.000000e+00
1
Step 137000
Ar 9.272064e-01 0.000000e+00 0.000000e+00
1
Step 138000
Ar 7.136923e-01 0.000000e+00 0.000000e+00
1
Step 139000
Ar 9.687989e-01 0.000000e+00 0.000000e+00
1
Step 140000
Ar 1.023650e+00 0.000000e+00 0.000000e+00
1
Step 141000
Ar 9.865281e-01 0.000000e+00 0.000000e+00
1
Step 142000
Ar 9.277178e-01 0.000000e+00 0.000000e+00
1
Step 143000
Ar 9.881177e-01 0.000000e+00 0.000000e+00
1
Step 144000
Ar 1.009683e+00 0.000000e+00 0.000000e+00
1
Step 145000
Ar 9.861063e-01 0.000000e+00 0.000000e+00
1
Step 146000
Ar 7.644078e-01 0.000000e+00 0.000000e+00
1
Step 147000
Ar 1.013911e+00 0.000000e+00 0.000000e+00
1
Step 148000
Ar 1.224410e+00 0.000000e+00 0.000000e+00
1
Step 149000
Ar 8.189800e-01 0.000000e+00 0.000000e+00
1
Step 150000
Ar 9.716727e-01 0.000000e+00 0.000000e+00
1
Step 151000
Ar 9.355938e-01 0.000000e+00 0.000000e+00
1
Step 152000
Ar 1.127753e+00 0.000000e+00 0.000000e+00
1
Step 153000
Ar 8.029083e-01 0.000000e+00 0.000000e+00
1
Step 154000
Ar 7.768959e-01 0.000000e+00 0.000000e+00
1
Step 155000
Ar 8.974998e-01 0.000000e+00 0.000000e+00
1
Step 156000
Ar 1.046389e+00 0.000000e+00 0.000000e+00
1
Step 157000
Ar 1.012306e+00 0.000000e+00 0.000000e+00
1
Step 158000
Ar 8.832668e-01 0.000000e+00 0.000000e+00
1
Step 159000
Ar 1.065920e+00 0.000000e+00 0.000000e+00
1
Step 160000
Ar 9.695655e-01 0.000000e+00 0.000000e+00
1
Step 161000
Ar 1.127008e+00 0.000000e+00 0.000000e+00
1
Step 162000
Ar 9.009673e-01 0.000000e+00 0.000000e+00
1
Step 163000
Ar 1.232998e+00 0.000000e+00 0.000000e+00
1
Step 164000
Ar 1.055212e+00 0.000000e+00 0.000000e+00
1
Step 165000
Ar 1.103611e+00 0.000000e+00 0.000000e+00
1
Step 166000
Ar 8.899188e-01 0.000000e+00 0.000000e+00
1
Step 167000
Ar 1.006734e+00 0.000000e+00 0.000000e+00
1
Step 168000
Ar 1.080824e+00 0.000000e+00 0.000000e+00
1
Step 169000
Ar 1.123343e+00 0.000000e+00 0.000000e+00
1
Step 170000
Ar 1.016963e+00 0.000000e+00 0.000000e+00
1
Step 171000
Ar 1.092459e+00 0.000000e+00 0.000000e+00
1
Step 172000
Ar 8.733376e-01 0.000000e+00 0.000000e+00
1
Step 173000
Ar 7.592352e-01 0.000000e+00 0.000000e+00
1
Step 174000
Ar 1.034778e+00 0.000000e+00 0.000000e+00
1
Step 175000
Ar 9.654238e-01 0.000000e+00 0.000000e+00
1
Step 176000
Ar 9.666085e-01 0.000000e+00 0.000000e+00
1
Step 177000
Ar 9.696850e-01 0.000000e+00 0.000000e+00
1
Step 178000
Ar 1.030492e+00 0.000000e+00 0.000000e+00
1
Step 179000
Ar 1.001970e+00 0.000000e+00 0.000000e+00
1
Step 180000
Ar 1.051074e+00 0.000000e+00 0.000000e+00
1
Step 181000
Ar 8.986747e-01 0.000000e+00 0.000000e+00
1
Step 182000
Ar 1.039932e+00 0.000000e+00 0.000000e+00
1
Step 183000
Ar 1.001836e+00 0.000000e+00 0.000000e+00
1
Step 184000
Ar 1.054511e+00 0.000000e+00 0.000000e+00
1
Step 185000
Ar 1.056962e+00 0.000000e+00 0.000000e+00
1
Step 186000
Ar 1.035809e+00 0.000000e+00 0.000000e+00
1
Step 187000
Ar 9.316669e-01 0.000000e+00 0.000000e+00
1
Step 188000
Ar 1.163835e+00 0.000000e+00 0.000000e+00
1
Step 189000
Ar 9.148415e-01 0.000000e+00 0.000000e+00
1
Step 190000
Ar 9.932518e-01 0.000000e+00 0.000000e+00
1
Step 191000
Ar 9.007150e-01 0.000000e+00 0.000000e+00
1
Step 192000
Ar 9.905289e-01 0.000000e+00 0.000000e+00
1
Step 193000
Ar 1.080060e+00 0.000000e+00 0.000000e+00
1
Step 194000
Ar 9.773571e-01 0.000000e+00 0.000000e+00
1
Step 195000
Ar 9.576129e-01 0.000000e+00 0.000000e+00
1
Step 196000
Ar 8.852323e-01 0.000000e+00 0.000000e+00
1
Step 197000
Ar 7.723772e-01 0.000000e+00 0.000000e+00
1
Step 198000
Ar 8.500469e-01 0.000000e+00 0.000000e+00
1
Step 199000
Ar 1.096691e+00 0.000000e+00 0.000000e+00
1
Step 200000
Ar 1.019158e+00 0.000000e+00 0.000000e+00
1
Step 201000
Ar 8.051028e-01 0.000000e+00 0.000000e+00
1
Step 202000
Ar 1.033595e+00 0.000000e+00 0.000000e+00
1
Step 203000
Ar 8.688755e-01 0.000000e+00 0.000000e+00
1
Step 204000
Ar 1.175187e+00 0.000000e+00 0.000000e+00
1
Step 205000
Ar 1.014688e+00 0.000000e+00 0.000000e+00
1
Step 206000
Ar 9.677294e-01 0.000000e+00 0.000000e+00
1
Step 207000
Ar 1.031095e+00 0.000000e+00 0.000000e+00
1
Step 208000
Ar 1.034216e+00 0.000000e+00 0.000000e+00
1
Step 209000
Ar 9.818098e-01 0.000000e+00 0.000000e+00
1
Step 210000
Ar 1.056897e+00 0.000000e+00 0.000000e+00
1
Step 211000
Ar 1.016376e+00 0.000000e+00 0.000000e+00
1
Step 212000
Ar 6.179317e-01 0.000000e+00 0.000000e+00
1
Step 213000
Ar 8.645267e-01 0.000000e+00 0.000000e+00
1
Step 214000
Ar 9.942027e-01 0.000000e+00 0.000000e+00
1
Step 215000
Ar 1.002208e+00 0.000000e+00 0.000000e+00
1
Step 216000
Ar 9.888477e-01 0.000000e+00 0.000000e+00
1
Step 217000
Ar 9.859913e-01 0.000000e+00 0.000000e+00
1
Step 218000
Ar 1.111138e+00 0.000000e+00 0.000000e+00
1
Step 219000
Ar 8.672001e-01 0.000000e+00 0.000000e+00
1
Step 220000
Ar 9.522963e-01 0.000000e+00 0.000000e+00
1
Step 221000
Ar 9.585357e-01 0.000000e+00 0.000000e+00
1
Step 222000
Ar 1.144161e+00 0.000000e+00 0.000000e+00
1
Step 223000
Ar 8.070581e-01 0.000000e+00 0.000000e+00
1
Step 224000
Ar 9.622897e-01 0.000000e+00 0.000000e+00
1
Step 225000
Ar 7.280905e-01 0.000000e+00 0.000000e+00
1
Step 226000
Ar 1.071728e+00 0.000000e+00 0.000000e+00
1
Step 227000
Ar 7.713374e-01 0.000000e+00 0.000000e+00
1
Step 228000
Ar 1.090295e+00 0.000000e+00 0.000000e+00
1
Step 229000
Ar 1.042799e+00 0.000000e+00 0.000000e+00
1
Step 230000
Ar 9.502590e-01 0.000000e+00 0.000000e+00
1
Step 231000
Ar 8.293566e-01 0.000000e+00 0.000000e+00
1
Step 232000
Ar 8.488738e-01 0.000000e+00 0.000000e+00
1
Step 233000
Ar 9.158914e-01 0.000000e+00 0.000000e+00
1
Step 234000
Ar 1.064788e+00 0.000000e+00 0.000000e+00
1
Step 235000
Ar 9.484542e-01 0.000000e+00 0.000000e+00
1
Step 236000
Ar 1.085197e+00 0.000000e+00 0.000000e+00
1
Step 237000
Ar 9.952949e-01 0.000000e+00 0.000000e+00
1
Step 238000
Ar 1.057001e+00 0.000000e+00 0.000000e+00
1
Step 239000
Ar 7.690788e-01 0.000000e+00 0.000000e+00
1
Step 240000
Ar 9.024283e-01 0.000000e+00 0.000000e+00
1
Step 241000
Ar 9.575850e-01 0.000000e+00 0.000000e+00
1
Step 242000
Ar 7.393920e-01 0.000000e+00 0.000000e+00
1
Step 243000
Ar 9.658732e-01 0.000000e+00 0.000000e+00
1
Step 244000
Ar 9.432934e-01 0.000000e+00 0.000000e+00
1
Step 245000
Ar 9.828571e-01 0.000000e+00 0.000000e+00
1
Step 246000
Ar 8.787732e-01 0.000000e+00 0.000000e+00
1
Step 247000
Ar 8.736537e-01 0.000000e+00 0.000000e+00
1
Step 248000
Ar 1.022887e+00 0.000000e+00 0.000000e+00
1
Step 249000
Ar 9.459851e-01 0.000000e+00 0.000000e+00
1
Step 250000
Ar 9.091047e-01 0.000000e+00 0.000000e+00
1
Step 251000
Ar 1.182106e+00 0.000000e+00 0.000000e+00
1
Step 252000
Ar 1.137627e+00 0.000000e+00 0.000000e+00
1
Step 253000
Ar 8.985641e-01 0.000000e+00 0.000000e+00
1
Step 254000
Ar 9.534061e-01 0.000000e+00 0.000000e+00
1
Step 255000
Ar 9.204054e-01 0.000000e+00 0.000000e+00
1
Step 256000
Ar 1.011214e+00 0.000000e+00 0.000000e+00
1
Step 257000
Ar 1.008384e+00 0.000000e+00 0.000000e+00
1
Step 258000
Ar 9.791523e-01 0.000000e+00 0.000000e+00
1
Step 259000
Ar 8.540609e-01 0.000000e+00 0.000000e+00
1
Step 260000
Ar 1.080200e+00 0.000000e+00 0.000000e+00
1
Step 261000
Ar 9.141452e-01 0.000000e+00 0.000000e+00
1
Step 262000
Ar 9.691241e-01 0.000000e+00 0.000000e+00
1
Step 263000
Ar 1.051597e+00 0.000000e+00 0.000000e+00
1
Step 264000
Ar 1.037164e+00 0.000000e+00 0.000000e+00
1
Step 265000
Ar 8.868283e-01 0.000000e+00 0.000000e+00
1
Step 266000
Ar 1.065744e+00 0.000000e+00 0.000000e+00
1
Step 267000
Ar 1.080507e+00 0.000000e+00 0.000000e+00
1
Step 268000
Ar 1.129040e+00 0.000000e+00 0.000000e+00
1
Step 269000
Ar 1.063194e+00 0.000000e+00 0.000000e+00
1
Step 270000
Ar 9.938715e-01 0.000000e+00 0.000000e+00
1
Step 271000
Ar 1.030131e+00 0.000000e+00 0.000000e+00
1
Step 272000
Ar 9.614536e-01 0.000000e+00 0.000000e+00
1
Step 273000
Ar 9.380529e-01 0.000000e+00 0.000000e+00
1
Step 274000
Ar 1.059189e+00 0.000000e+00 0.000000e+00
1
Step 275000
Ar 1.066933e+00 0.000000e+00 0.000000e+00
1
Step 276000
Ar 9.537244e-01 0.000000e+00 0.000000e+00
1
Step 277000
Ar 1.167883e+00 0.000000e+00 0.000000e+00
1
Step 278000
Ar 9.639804e-01 0.000000e+00 0.000000e+00
1
Step 279000
Ar 8.767727e-01 0.000000e+00 0.000000e+00
1
Step 280000
Ar 8.745778e-01 0.000000e+00 0.000000e+00
1
Step 281000
Ar 1.000030e+00 0.000000e+00 0.000000e+00
1
Step 282000
Ar 8.258439e-01 0.000000e+00 0.000000e+00
1
Step 283000
Ar 7.775633e-01 0.000000e+00 0.000000e+00
1
Step 284000
Ar 9.383402e-01 0.000000e+00 0.000000e+00
1
Step 285000
Ar 1.073532e+00 0.000000e+00 0.000000e+00
1
Step 286000
Ar 1.008001e+00 0.000000e+00 0.000000e+00
1
Step 287000
Ar 9.237418e-01 0.000000e+00 0.000000e+00
1
Step 288000
Ar 8.443161e-01 0.000000e+00 0.000000e+00
1
Step 289000
Ar 1.053072e+00 0.000000e+00 0.000000e+00
1
Step 290000
Ar 9.325334e-01 0.000000e+00 0.000000e+00
1
Step 291000
Ar 1.042437e+00 0.000000e+00 0.000000e+00
1
Step 292000
Ar 8.681231e-01 0.000000e+00 0.000000e+00
1
Step 293000
Ar 1.035279e+00 0.000000e+00 0.000000e+00
1
Step 294000
Ar 1.067302e+00 0.000000e+00 0.000000e+00
1
Step 295000
Ar 7.478102e-01 0.000000e+00 0.000000e+00
1
Step 296000
Ar 9.836026e-01 0.000000e+00 0.000000e+00
1
Step 297000
Ar 1.024892e+00 0.000000e+00 0.000000e+00
1
Step 298000
Ar 1.110284e+00 0.000000e+00 0.000000e+00
1
Step 299000
Ar 7.714974e-01 0.000000e+00 0.000000e+00
1
Step 300000
Ar 9.087581e-01 0.000000e+00 0.000000e+00
1
Step 301000
Ar 1.040687e+00 0.000000e+00 0.000000e+00
1
Step 302000
Ar 1.155124e+00 0.000000e+00 0.000000e+00
1
Step 303000
Ar 9.596889e-01 0.000000e+00 0.000000e+00
1
Step 304000
Ar 8.592090e-01 0.000000e+00 0.000000e+00
1
Step 305000
Ar 9.521237e-01 0.000000e+00 0.000000e+00
1
Step 306000
Ar 9.699278e-01 0.000000e+00 0.000000e+00
1
Step 307000
Ar 1.025168e+00 0.000000e+00 0.000000e+00
1
Step 308000
Ar 1.026159e+00 0.000000e+00 0.000000e+00
1
Step 309000
Ar 1.007539e+00 0.000000e+00 0.000000e+00
1
Step 310000
Ar 1.106712e+00 0.000000e+00 0.000000e+00
1
Step 311000
Ar 9.354622e-01 0.000000e+00 0.000000e+00
1
Step 312000
Ar 8.240442e-01 0.000000e+00 0.000000e+00
1
Step 313000
Ar 8.874950e-01 0.000000e+00 0.000000e+00
1
Step 314000
Ar 7.609566e-01 0.000000e+00 0.000000e+00
1
Step 315000
Ar 1.013993e+00 0.000000e+00 0.000000e+00
1
Step 316000
Ar 1.026977e+00 0.000000e+00 0.000000e+00
1
Step 317000
Ar 1.054380e+00 0.000000e+00 0.000000e+00
1
Step 318000
Ar 1.009047e+00 0.000000e+00 0.000000e+00
1
Step 319000
Ar 9.852985e-01 0.000000e+00 0.000000e+00
1
Step 320000
Ar 9.317017e-01 0.000000e+00 0.000000e+00
1
Step 321000
Ar 8.869791e-01 0.000000e+00 0.000000e+00
1
Step 322000
Ar 8.955033e-01 0.000000e+00 0.000000e+00
1
Step 323000
Ar 7.777336e-01 0.000000e+00 0.000000e+00
1
Step 324000
Ar 7.964086e-01 0.000000e+00 0.000000e+00
1
Step 325000
Ar 6.419441e-01 0.000000e+00 0.000000e+00
1
Step 326000
Ar 8.031361e-01 0.000000e+00 0.000000e+00
1
Step 327000
Ar 9.112610e-01 0.000000e+00 0.000000e+00
1
Step 328000
Ar 9.119822e-01 0.000000e+00 0.000000e+00
1
Step 329000
Ar 8.571410e-01 0.000000e+00 0.000000e+00
1
Step 330000
Ar 8.752156e-01 0.000000e+00 0.000000e+00
1
Step 331000
Ar 7.794912e-01 0.000000e+00 0.000000e+00
1
Step 332000
Ar 9.167266e-01 0.000000e+00 0.000000e+00
1
Step 333000
Ar 8.150134e-01 0.000000e+00 0.000000e+00
1
Step 334000
Ar 8.999110e-01 0.000000e+00 0.000000e+00
1
Step 335000
Ar 7.372529e-01 0.000000e+00 0.000000e+00
1
Step 336000
Ar 8.666887e-01 0.000000e+00 0.000000e+00
1
Step 337000
Ar 8.041312e-01 0.000000e+00 0.000000e+00
1
Step 338000
Ar 9.162819e-01 0.000000e+00 0.000000e+00
1
Step 339000
Ar 9.160169e-01 0.000000e+00 0.000000e+00
1
Step 340000
Ar 8.622289e-01 0.000000e+00 0.000000e+00
1
Step 341000
Ar 9.183361e-01 0.000000e+00 0.000000e+00
1
Step 342000
Ar 8.612910e-01 0.000000e+00 0.000000e+00
1
Step 343000
Ar 8.360294e-01 0.000000e+00 0.000000e+00
1
Step 344000
Ar 8.994266e-01 0.000000e+00 0.000000e+00
1
Step 345000
Ar 8.681991e-01 0.000000e+00 0.000000e+00
1
Step 346000
Ar 9.110595e-01 0.000000e+00 0.000000e+00
1
Step 347000
Ar 9.046874e-01 0.000000e+00 0.000000e+00
1
Step 348000
Ar 8.951565e-01 0.000000e+00 0.000000e+00
1
Step 349000
Ar 8.851557e-01 0.000000e+00 0.000000e+00
1
Step 350000
Ar 8.607412e-01 0.000000e+00 0.000000e+00
1
Step 351000
Ar 6.700035e-01 0.000000e+00 0.000000e+00
1
Step 352000
Ar 7.057473e-01 0.000000e+00 0.000000e+00
1
Step 353000
Ar 9.160935e-01 0.000000e+00 0.000000e+00
1
Step 354000
Ar 7.955623e-01 0.000000e+00 0.000000e+00
1
Step 355000
Ar 8.161556e-01 0.000000e+00 0.000000e+00
1
Step 356000
Ar 9.135594e-01 0.000000e+00 0.000000e+00
1
Step 357000
Ar 8.168628e-01 0.000000e+00 0.000000e+00
1
Step 358000
Ar 9.051095e-01 0.000000e+00 0.000000e+00
1
Step 359000
Ar 8.742518e-01 0.000000e+00 0.000000e+00
1
Step 360000
Ar 5.825057e-01 0.000000e+00 0.000000e+00
1
Step 361000
Ar 7.945926e-01 0.000000e+00 0.000000e+00
1
Step 362000
Ar 9.066966e-01 0.000000e+00 0.000000e+00
1
Step 363000
Ar 8.684734e-01 0.000000e+00 0.000000e+00
1
Step 364000
Ar 8.134253e-01 0.000000e+00 0.000000e+00
1
Step 365000
Ar 9.051347e-01 0.000000e+00 0.000000e+00
1
Step 366000
Ar 8.065955e-01 0.000000e+00 0.000000e+00
1
Step 367000
Ar 8.915074e-01 0.000000e+00 0.000000e+00
1
Step 368000
Ar 8.702401e-01 0.000000e+00 0.000000e+00
1
Step 369000
Ar 8.323405e-01 0.000000e+00 0.000000e+00
1
Step 370000
Ar 8.710205e-01 0.000000e+00 0.000000e+00
1
Step 371000
Ar 8.924678e-01 0.000000e+00 0.000000e+00
1
Step 372000
Ar 7.445916e-01 0.000000e+00 0.000000e+00
1
Step 373000
Ar 8.981644e-01 0.000000e+00 0.000000e+00
1
Step 374000
Ar 8.229569e-01 0.000000e+00 0.000000e+00
1
Step 375000
Ar 8.190961e-01 0.000000e+00 0.000000e+00
1
Step 376000
Ar 8.023094e-01 0.000000e+00 0.000000e+00
1
Step 377000
Ar 8.410099e-01 0.000000e+00 0.000000e+00
1
Step 378000
Ar 8.463162e-01 0.000000e+00 0.000000e+00
1
Step 379000
Ar 8.671430e-01 0.000000e+00 0.000000e+00
1
Step 380000
Ar 8.661713e-01 0.000000e+00 0.000000e+00
1
Step 381000
Ar 8.648788e-01 0.000000e+00 0.000000e+00
1
Step 382000
Ar 8.593747e-01 0.000000e+00 0.000000e+00
1
Step 383000
Ar 7.069721e-01 0.000000e+00 0.000000e+00
1
Step 384000
Ar 8.981075e-01 0.000000e+00 0.000000e+00
1
Step 385000
Ar 9.025980e-01 0.000000e+00 0.000000e+00
1
Step 386000
Ar 8.350580e-01 0.000000e+00 0.000000e+00
1
Step 387000
Ar 8.095297e-01 0.000000e+00 0.000000e+00
1
Step 388000
Ar 8.914562e-01 0.000000e+00 0.000000e+00
1
Step 389000
Ar 8.853057e-01 0.000000e+00 0.000000e+00
1
Step 390000
Ar 8.239266e-01 0.000000e+00 0.000000e+00
1
Step 391000
Ar 7.836983e-01 0.000000e+00 0.000000e+00
1
Step 392000
Ar 9.046493e-01 0.000000e+00 0.000000e+00
1
Step 393000
Ar 8.917115e-01 0.000000e+00 0.000000e+00
1
Step 394000
Ar 7.729788e-01 0.000000e+00 0.000000e+00
1
Step 395000
Ar 9.105614e-01 0.000000e+00 0.000000e+00
1
Step 396000
Ar 6.800238e-01 0.000000e+00 0.000000e+00
1
Step 397000
Ar 8.341098e-01 0.000000e+00 0.000000e+00
1
Step 398000
Ar 7.246839e-01 0.000000e+00 0.000000e+00
1
Step 399000
Ar 8.429614e-01 0.000000e+00 0.000000e+00
1
Step 400000
Ar 8.716457e-01 0.000000e+00 0.000000e+00
1
Step 401000
Ar 3.338363e-01 0.000000e+00 0.000000e+00
1
Step 402000
Ar 9.140244e-01 0.000000e+00 0.000000e+00
1
Step 403000
Ar 9.075797e-01 0.000000e+00 0.000000e+00
1
Step 404000
Ar 9.009628e-01 0.000000e+00 0.000000e+00
1
Step 405000
Ar 7.423913e-01 0.000000e+00 0.000000e+00
1
Step 406000
Ar 8.224111e-01 0.000000e+00 0.000000e+00
1
Step 407000
Ar 8.735225e-01 0.000000e+00 0.000000e+00
1
Step 408000
Ar 7.735935e-01 0.000000e+00 0.000000e+00
1
Step 409000
Ar 8.300922e-01 0.000000e+00 0.000000e+00
1
Step 410000
Ar 8.822974e-01 0.000000e+00 0.000000e+00
1
Step 411000
Ar 8.295265e-01 0.000000e+00 0.000000e+00
1
Step 412000
Ar 7.937495e-01 0.000000e+00 0.000000e+00
1
Step 413000
Ar 8.473304e-01 0.000000e+00 0.000000e+00
1
Step 414000
Ar 8.618701e-01 0.000000e+00 0.000000e+00
1
Step 415000
Ar 9.136996e-01 0.000000e+00 0.000000e+00
1
Step 416000
Ar 9.001742e-01 0.000000e+00 0.000000e+00
1
Step 417000
Ar 8.323466e-01 0.000000e+00 0.000000e+00
1
Step 418000
Ar 7.862927e-01 0.000000e+00 0.000000e+00
1
Step 419000
Ar 8.473420e-01 0.000000e+00 0.000000e+00
1
Step 420000
Ar 7.707309e-01 0.000000e+00 0.000000e+00
1
Step 421000
Ar 8.753282e-01 0.000000e+00 0.000000e+00
1
Step 422000
Ar 7.312482e-01 0.000000e+00 0.000000e+00
1
Step 423000
Ar 7.809094e-01 0.000000e+00 0.000000e+00
1
Step 424000
Ar 8.605381e-01 0.000000e+00 0.000000e+00
1
Step 425000
Ar 8.716910e-01 0.000000e+00 0.000000e+00
1
Step 426000
Ar 8.585069e-01 0.000000e+00 0.000000e+00
1
Step 427000
Ar 8.335142e-01 0.000000e+00 0.000000e+00
1
Step 428000
Ar 8.928214e-01 0.000000e+00 0.000000e+00
1
Step 429000
Ar 9.060768e-01 0.000000e+00 0.000000e+00
1
Step 430000
Ar 7.896843e-01 0.000000e+00 0.000000e+00
1
Step 431000
Ar 8.795086e-01 0.000000e+00 0.000000e+00
1
Step 432000
Ar 9.129219e-01 0.000000e+00 0.000000e+00
1
Step 433000
Ar 8.774959e-01 0.000000e+00 0.000000e+00
1
Step 434000
Ar 8.498156e-01 0.000000e+00 0.000000e+00
1
Step 435000
Ar 8.060483e-01 0.000000e+00 0.000000e+00
1
Step 436000
Ar 9.000248e-01 0.000000e+00 0.000000e+00
1
Step 437000
Ar 8.733888e-01 0.000000e+00 0.000000e+00
1
Step 438000
Ar 7.154145e-01 0.000000e+00 0.000000e+00
1
Step 439000
Ar 7.061613e-01 0.000000e+00 0.000000e+00
1
Step 440000
Ar 8.152283e-01 0.000000e+00 0.000000e+00
1
Step 441000
Ar 9.083649e-01 0.000000e+00 0.000000e+00
1
Step 442000
Ar 8.296694e-01 0.000000e+00 0.000000e+00
1
Step 443000
Ar 7.255177e-01 0.000000e+00 0.000000e+00
1
Step 444000
Ar 8.219757e-01 0.000000e+00 0.000000e+00
1
Step 445000
Ar 8.686881e-01 0.000000e+00 0.000000e+00
1
Step 446000
Ar 6.433970e-01 0.000000e+00 0.000000e+00
1
Step 447000
Ar 8.530776e-01 0.000000e+00 0.000000e+00
1
Step 448000
Ar 8.935513e-01 0.000000e+00 0.000000e+00
1
Step 449000
Ar 8.285794e-01 0.000000e+00 0.000000e+00
1
Step 450000
Ar 5.918140e-01 0.000000e+00 0.000000e+00
1
Step 451000
Ar 8.475084e-01 0.000000e+00 0.000000e+00
1
Step 452000
Ar 7.635379e-01 0.000000e+00 0.000000e+00
1
Step 453000
Ar 8.135173e-01 0.000000e+00 0.000000e+00
1
Step 454000
Ar 8.566236e-01 0.000000e+00 0.000000e+00
1
Step 455000
Ar 9.030534e-01 0.000000e+00 0.000000e+00
1
Step 456000
Ar 9.052949e-01 0.000000e+00 0.000000e+00
1
Step 457000
Ar 8.266399e-01 0.000000e+00 0.000000e+00
1
Step 458000
Ar 8.934104e-01 0.000000e+00 0.000000e+00
1
Step 459000
Ar 8.683521e-01 0.000000e+00 0.000000e+00
1
Step 460000
Ar 8.900409e-01 0.000000e+00 0.000000e+00
1
Step 461000
Ar 7.135152e-01 0.000000e+00 0.000000e+00
1
Step 462000
Ar 8.786166e-01 0.000000e+00 0.000000e+00
1
Step 463000
Ar 8.715693e-01 0.000000e+00 0.000000e+00
1
Step 464000
Ar 6.951150e-01 0.000000e+00 0.000000e+00
1
Step 465000
Ar 6.901031e-01 0.000000e+00 0.000000e+00
1
Step 466000
Ar 7.850923e-01 0.000000e+00 0.000000e+00
1
Step 467000
Ar 8.155195e-01 0.000000e+00 0.000000e+00
1
Step 468000
Ar 7.926410e-01 0.000000e+00 0.000000e+00
1
Step 469000
Ar 8.527195e-01 0.000000e+00 0.000000e+00
1
Step 470000
Ar 8.402524e-01 0.000000e+00 0.000000e+00
1
Step 471000
Ar 8.908991e-01 0.000000e+00 0.000000e+00
1
Step 472000
Ar 8.262492e-01 0.000000e+00 0.000000e+00
1
Step 473000
Ar 8.830285e-01 0.000000e+00 0.000000e+00
1
Step 474000
Ar 7.823191e-01 0.000000e+00 0.000000e+00
1
Step 475000
Ar 8.654592e-01 0.000000e+00 0.000000e+00
1
Step 476000
Ar 8.481892e-01 0.000000e+00 0.000000e+00
1
Step 477000
Ar 8.734691e-01 0.000000e+00 0.000000e+00
1
Step 478000
Ar 9.164340e-01 0.000000e+00 0.000000e+00
1
Step 479000
Ar 8.696911e-01 0.000000e+00 0.000000e+00
1
Step 480000
Ar 8.568527e-01 0.000000e+00 0.000000e+00
1
Step 481000
Ar 7.567515e-01 0.000000e+00 0.000000e+00
1
Step 482000
Ar 8.682971e-01 0.000000e+00 0.000000e+00
1
Step 483000
Ar 8.794306e-01 0.000000e+00 0.000000e+00
1
Step 484000
Ar 8.757851e-01 0.000000e+00 0.000000e+00
1
Step 485000
Ar 8.091629e-01 0.000000e+00 0.000000e+00
1
Step 486000
Ar 8.707820e-01 0.000000e+00 0.000000e+00
1
Step 487000
Ar 8.164023e-01 0.000000e+00 0.000000e+00
1
Step 488000
Ar 8.505058e-01 0.000000e+00 0.000000e+00
1
Step 489000
Ar 8.854188e-01 0.000000e+00 0.000000e+00
1
Step 490000
Ar 7.821765e-01 0.000000e+00 0.000000e+00
1
Step 491000
Ar 6.796298e-01 0.000000e+00 0.000000e+00
1
Step 492000
Ar 9.166889e-01 0.000000e+00 0.000000e+00
1
Step 493000
Ar 7.401293e-01 0.000000e+00 0.000000e+00
1
Step 494000
Ar 8.321004e-01 0.000000e+00 0.000000e+00
1
Step 495000
Ar 8.967993e-01 0.000000e+00 0.000000e+00
1
Step 496000
Ar 8.288862e-01 0.000000e+00 0.000000e+00
1
Step 497000
Ar 8.412201e-01 0.000000e+00 0.000000e+00
1
Step 498000
Ar 8.941323e-01 0.000000e+00 0.000000e+00
1
Step 499000
Ar 8.800671e-01 0.000000e+00 0.000000e+00
1
Step 500000
Ar 9.079208e-01 0.000000e+00 0.000000e+00
1
Step 501000
Ar 7.539846e-01 0.000000e+00 0.000000e+00
1
Step 502000
Ar 8.966147e-01 0.000000e+00 0.000000e+00
1
Step 503000
Ar 9.129008e-01 0.000000e+00 0.000000e+00
1
Step 504000
Ar 9.009528e-01 0.000000e+00 0.000000e+00
1
Step 505000
Ar 8.671406e-01 0.000000e+00 0.000000e+00
1
Step 506000
Ar 6.647357e-01 0.000000e+00 0.000000e+00
1
Step 507000
Ar 9.095734e-01 0.000000e+00 0.000000e+00
1
Step 508000
Ar 7.664008e-01 0.000000e+00 0.000000e+00
1
Step 509000
Ar 7.006801e-01 0.000000e+00 0.000000e+00
1
Step 510000
Ar 9.135635e-01 0.000000e+00 0.000000e+00
1
Step 511000
Ar 6.560068e-01 0.000000e+00 0.000000e+00
1
Step 512000
Ar 8.496292e-01 0.000000e+00 0.000000e+00
1
Step 513000
Ar 8.235982e-01 0.000000e+00 0.000000e+00
1
Step 514000
Ar 8.654765e-01 0.000000e+00 0.000000e+00
1
Step 515000
Ar 8.352910e-01 0.000000e+00 0.000000e+00
1
Step 516000
Ar 8.793126e-01 0.000000e+00 0.000000e+00
1
Step 517000
Ar 8.842768e-01 0.000000e+00 0.000000e+00
1
Step 518000
Ar 8.292244e-01 0.000000e+00 0.000000e+00
1
Step 519000
Ar 9.080317e-01 0.000000e+00 0.000000e+00
1
Step 520000
Ar 9.073187e-01 0.000000e+00 0.000000e+00
1
Step 521000
Ar 8.126823e-01 0.000000e+00 0.000000e+00
1
Step 522000
Ar 8.650424e-01 0.000000e+00 0.000000e+00
1
Step 523000
Ar 7.849392e-01 0.000000e+00 0.000000e+00
1
Step 524000
Ar 8.560003e-01 0.000000e+00 0.000000e+00
1
Step 525000
Ar 8.942896e-01 0.000000e+00 0.000000e+00
1
Step 526000
Ar 6.998054e-01 0.000000e+00 0.000000e+00
1
Step 527000
Ar 7.140408e-01 0.000000e+00 0.000000e+00
1
Step 528000
Ar 8.295137e-01 0.000000e+00 0.000000e+00
1
Step 529000
Ar 7.249019e-01 0.000000e+00 0.000000e+00
1
Step 530000
Ar 7.559878e-01 0.000000e+00 0.000000e+00
1
Step 531000
Ar 8.705399e-01 0.000000e+00 0.000000e+00
1
Step 532000
Ar 8.977953e-01 0.000000e+00 0.000000e+00
1
Step 533000
Ar 9.072085e-01 0.000000e+00 0.000000e+00
1
Step 534000
Ar 7.713515e-01 0.000000e+00 0.000000e+00
1
Step 535000
Ar 8.766402e-01 0.000000e+00 0.000000e+00
1
Step 536000
Ar 8.262206e-01 0.000000e+00 0.000000e+00
1
Step 537000
Ar 7.949729e-01 0.000000e+00 0.000000e+00
1
Step 538000
Ar 8.777899e-01 0.000000e+00 0.000000e+00
1
Step 539000
Ar 8.054401e-01 0.000000e+00 0.000000e+00
1
Step 540000
Ar 9.120575e-01 0.000000e+00 0.000000e+00
1
Step 541000
Ar 8.753529e-01 0.000000e+00 0.000000e+00
1
Step 542000
Ar 8.484741e-01 0.000000e+00 0.000000e+00
1
Step 543000
Ar 7.618300e-01 0.000000e+00 0.000000e+00
1
Step 544000
Ar 7.842695e-01 0.000000e+00 0.000000e+00
1
Step 545000
Ar 7.479397e-01 0.000000e+00 0.000000e+00
1
Step 546000
Ar 7.807409e-01 0.000000e+00 0.000000e+00
1
Step 547000
Ar 8.796151e-01 0.000000e+00 0.000000e+00
1
Step 548000
Ar 8.349525e-01 0.000000e+00 0.000000e+00
1
Step 549000
Ar 8.519039e-01 0.000000e+00 0.000000e+00
1
Step 550000
Ar 8.792586e-01 0.000000e+00 0.000000e+00
1
Step 551000
Ar 8.099370e-01 0.000000e+00 0.000000e+00
1
Step 552000
Ar 8.610913e-01 0.000000e+00 0.000000e+00
1
Step 553000
Ar 8.533595e-01 0.000000e+00 0.000000e+00
1
Step 554000
Ar 7.468200e-01 0.000000e+00 0.000000e+00
1
Step 555000
Ar 9.127166e-01 0.000000e+00 0.000000e+00
1
Step 556000
Ar 8.724016e-01 0.000000e+00 0.000000e+00
1
Step 557000
Ar 8.885857e-01 0.000000e+00 0.000000e+00
1
Step 558000
Ar 7.922623e-01 0.000000e+00 0.000000e+00
1
Step 559000
Ar 8.894583e-01 0.000000e+00 0.000000e+00
1
Step 560000
Ar 8.253517e-01 0.000000e+00 0.000000e+00
1
Step 561000
Ar 9.136135e-01 0.000000e+00 0.000000e+00
1
Step 562000
Ar 6.405447e-01 0.000000e+00 0.000000e+00
1
Step 563000
Ar 9.191825e-01 0.000000e+00 0.000000e+00
1
Step 564000
Ar 8.022032e-01 0.000000e+00 0.000000e+00
1
Step 565000
Ar 8.515927e-01 0.000000e+00 0.000000e+00
1
Step 566000
Ar 8.941189e-01 0.000000e+00 0.000000e+00
1
Step 567000
Ar 9.119896e-01 0.000000e+00 0.000000e+00
1
Step 568000
Ar 7.261052e-01 0.000000e+00 0.000000e+00
1
Step 569000
Ar 8.794908e-01 0.000000e+00 0.000000e+00
1
Step 570000
Ar 8.532341e-01 0.000000e+00 0.000000e+00
1
Step 571000
Ar 9.196263e-01 0.000000e+00 0.000000e+00
1
Step 572000
Ar 7.783108e-01 0.000000e+00 0.000000e+00
1
Step 573000
Ar 9.045875e-01 0.000000e+00 0.000000e+00
1
Step 574000
Ar 7.304873e-01 0.000000e+00 0.000000e+00
1
Step 575000
Ar 9.132016e-01 0.000000e+00 0.000000e+00
1
Step 576000
Ar 8.871365e-01 0.000000e+00 0.000000e+00
1
Step 577000
Ar 8.184846e-01 0.000000e+00 0.000000e+00
1
Step 578000
Ar 8.634973e-01 0.000000e+00 0.000000e+00
1
Step 579000
Ar 8.949751e-01 0.000000e+00 0.000000e+00
1
Step 580000
Ar 8.826932e-01 0.000000e+00 0.000000e+00
1
Step 581000
Ar 5.700103e-01 0.000000e+00 0.000000e+00
1
Step 582000
Ar 8.842220e-01 0.000000e+00 0.000000e+00
1
Step 583000
Ar 8.309408e-01 0.000000e+00 0.000000e+00
1
Step 584000
Ar 7.699188e-01 0.000000e+00 0.000000e+00
1
Step 585000
Ar 7.314754e-01 0.000000e+00 0.000000e+00
1
Step 586000
Ar 8.234004e-01 0.000000e+00 0.000000e+00
1
Step 587000
Ar 8.886678e-01 0.000000e+00 0.000000e+00
1
Step 588000
Ar 8.858353e-01 0.000000e+00 0.000000e+00
1
Step 589000
Ar 8.507721e-01 0.000000e+00 0.000000e+00
1
Step 590000
Ar 8.818934e-01 0.000000e+00 0.000000e+00
1
Step 591000
Ar 8.199697e-01 0.000000e+00 0.000000e+00
1
Step 592000
Ar 9.150836e-01 0.000000e+00 0.000000e+00
1
Step 593000
Ar 8.054216e-01 0.000000e+00 0.000000e+00
1
Step 594000
Ar 8.857272e-01 0.000000e+00 0.000000e+00
1
Step 595000
Ar 8.756040e-01 0.000000e+00 0.000000e+00
1
Step 596000
Ar 9.163408e-01 0.000000e+00 0.000000e+00
1
Step 597000
Ar 8.597923e-01 0.000000e+00 0.000000e+00
1
Step 598000
Ar 8.802318e-01 0.000000e+00 0.000000e+00
1
Step 599000
Ar 7.502201e-01 0.000000e+00 0.000000e+00
1
Step 600000
Ar 8.942832e-01 0.000000e+00 0.000000e+00
1
Step 601000
Ar 8.249571e-01 0.000000e+00 0.000000e+00
1
Step 602000
Ar 6.277366e-01 0.000000e+00 0.000000e+00
1
Step 603000
Ar 7.300827e-01 0.000000e+00 0.000000e+00
1
Step 604000
Ar 8.054558e-01 0.000000e+00 0.000000e+00
1
Step 605000
Ar 8.720117e-01 0.000000e+00 0.000000e+00
1
Step 606000
Ar 6.178797e-01 0.000000e+00 0.000000e+00
1
Step 607000
Ar 7.990677e-01 0.000000e+00 0.000000e+00
1
Step 608000
Ar 9.127627e-01 0.000000e+00 0.000000e+00
1
Step 609000
Ar 8.833846e-01 0.000000e+00 0.000000e+00
1
Step 610000
Ar 7.312338e-01 0.000000e+00 0.000000e+00
1
Step 611000
Ar 7.671831e-01 0.000000e+00 0.000000e+00
1
Step 612000
Ar 8.700467e-01 0.000000e+00 0.000000e+00
1
Step 613000
Ar 8.444004e-01 0.000000e+00 0.000000e+00
1
Step 614000
Ar 7.811546e-01 0.000000e+00 0.000000e+00
1
Step 615000
Ar 8.969427e-01 0.000000e+00 0.000000e+00
1
Step 616000
Ar 8.138214e-01 0.000000e+00 0.000000e+00
1
Step 617000
Ar 8.351419e-01 0.000000e+00 0.000000e+00
1
Step 618000
Ar 9.043868e-01 0.000000e+00 0.000000e+00
1
Step 619000
Ar 9.119169e-01 0.000000e+00 0.000000e+00
1
Step 620000
Ar 7.873058e-01 0.000000e+00 0.000000e+00
1
Step 621000
Ar 9.158097e-01 0.000000e+00 0.000000e+00
1
Step 622000
Ar 8.159303e-01 0.000000e+00 0.000000e+00
1
Step 623000
Ar 8.646872e-01 0.000000e+00 0.000000e+00
1
Step 624000
Ar 7.498653e-01 0.000000e+00 0.000000e+00
1
Step 625000
Ar 8.711350e-01 0.000000e+00 0.000000e+00
1
Step 626000
Ar 6.010336e-01 0.000000e+00 0.000000e+00
1
Step 627000
Ar 9.013089e-01 0.000000e+00 0.000000e+00
1
Step 628000
Ar 9.011530e-01 0.000000e+00 0.000000e+00
1
Step 629000
Ar 8.626311e-01 0.000000e+00 0.000000e+00
1
Step 630000
Ar 8.412589e-01 0.000000e+00 0.000000e+00
1
Step 631000
Ar 9.199496e-01 0.000000e+00 0.000000e+00
1
Step 632000
Ar 8.404390e-01 0.000000e+00 0.000000e+00
1
Step 633000
Ar 7.979058e-01 0.000000e+00 0.000000e+00
1
Step 634000
Ar 8.266115e-01 0.000000e+00 0.000000e+00
1
Step 635000
Ar 8.808139e-01 0.000000e+00 0.000000e+00
1
Step 636000
Ar 7.897975e-01 0.000000e+00 0.000000e+00
1
Step 637000
Ar 8.969069e-01 0.000000e+00 0.000000e+00
1
Step 638000
Ar 7.131629e-01 0.000000e+00 0.000000e+00
1
Step 639000
Ar 8.372660e-01 0.000000e+00 0.000000e+00
1
Step 640000
Ar 7.244056e-01 0.000000e+00 0.000000e+00
1
Step 641000
Ar 8.214962e-01 0.000000e+00 0.000000e+00
1
Step 642000
Ar 9.025166e-01 0.000000e+00 0.000000e+00
1
Step 643000
Ar 8.505057e-01 0.000000e+00 0.000000e+00
1
Step 644000
Ar 8.243108e-01 0.000000e+00 0.000000e+00
1
Step 645000
Ar 8.409387e-01 0.000000e+00 0.000000e+00
1
Step 646000
Ar 7.834054e-01 0.000000e+00 0.000000e+00
1
Step 647000
Ar 7.712246e-01 0.000000e+00 0.000000e+00
1
Step 648000
Ar 8.417407e-01 0.000000e+00 0.000000e+00
1
Step 649000
Ar 7.788426e-01 0.000000e+00 0.000000e+00
1
Step 650000
Ar 7.592728e-01 0.000000e+00 0.000000e+00
1
Step 651000
Ar 8.770956e-01 0.000000e+00 0.000000e+00
1
Step 652000
Ar 9.142720e-01 0.000000e+00 0.000000e+00
1
Step 653000
Ar 9.224914e-01 0.000000e+00 0.000000e+00
1
Step 654000
Ar 7.438559e-01 0.000000e+00 0.000000e+00
1
Step 655000
Ar 7.063191e-01 0.000000e+00 0.000000e+00
1
Step 656000
Ar 7.548571e-01 0.000000e+00 0.000000e+00
1
Step 657000
Ar 8.177426e-01 0.000000e+00 0.000000e+00
1
Step 658000
Ar 8.677266e-01 0.000000e+00 0.000000e+00
1
Step 659000
Ar 8.412048e-01 0.000000e+00 0.000000e+00
1
Step 660000
Ar 7.380361e-01 0.000000e+00 0.000000e+00
1
Step 661000
Ar 9.180722e-01 0.000000e+00 0.000000e+00
1
Step 662000
Ar 9.149454e-01 0.000000e+00 0.000000e+00
1
Step 663000
Ar 8.720870e-01 0.000000e+00 0.000000e+00
1
Step 664000
Ar 8.956301e-01 0.000000e+00 0.000000e+00
1
Step 665000
Ar 8.895718e-01 0.000000e+00 0.000000e+00
1
Step 666000
Ar 7.579540e-01 0.000000e+00 0.000000e+00
1
Step 667000
Ar 8.025718e-01 0.000000e+00 0.000000e+00
1
Step 668000
Ar 8.968373e-01 0.000000e+00 0.000000e+00
1
Step 669000
Ar 6.218192e-01 0.000000e+00 0.000000e+00
1
Step 670000
Ar 9.037087e-01 0.000000e+00 0.000000e+00
1
Step 671000
Ar 8.066855e-01 0.000000e+00 0.000000e+00
1
Step 672000
Ar 8.863563e-01 0.000000e+00 0.000000e+00
1
Step 673000
Ar 8.560335e-01 0.000000e+00 0.000000e+00
1
Step 674000
Ar 7.911946e-01 0.000000e+00 0.000000e+00
1
Step 675000
Ar 9.114070e-01 0.000000e+00 0.000000e+00
1
Step 676000
Ar 8.794051e-01 0.000000e+00 0.000000e+00
1
Step 677000
Ar 8.339998e-01 0.000000e+00 0.000000e+00
1
Step 678000
Ar 8.450326e-01 0.000000e+00 0.000000e+00
1
Step 679000
Ar 8.303417e-01 0.000000e+00 0.000000e+00
1
Step 680000
Ar 8.077598e-01 0.000000e+00 0.000000e+00
1
Step 681000
Ar 8.941426e-01 0.000000e+00 0.000000e+00
1
Step 682000
Ar 7.988498e-01 0.000000e+00 0.000000e+00
1
Step 683000
Ar 6.191339e-01 0.000000e+00 0.000000e+00
1
Step 684000
Ar 8.306547e-01 0.000000e+00 0.000000e+00
1
Step 685000
Ar 7.910934e-01 0.000000e+00 0.000000e+00
1
Step 686000
Ar 8.712849e-01 0.000000e+00 0.000000e+00
1
Step 687000
Ar 7.150420e-01 0.000000e+00 0.000000e+00
1
Step 688000
Ar 7.375268e-01 0.000000e+00 0.000000e+00
1
Step 689000
Ar 8.925082e-01 0.000000e+00 0.000000e+00
1
Step 690000
Ar 6.007694e-01 0.000000e+00 0.000000e+00
1
Step 691000
Ar 8.010828e-01 0.000000e+00 0.000000e+00
1
Step 692000
Ar 9.014933e-01 0.000000e+00 0.000000e+00
1
Step 693000
Ar 8.573941e-01 0.000000e+00 0.000000e+00
1
Step 694000
Ar 7.325184e-01 0.000000e+00 0.000000e+00
1
Step 695000
Ar 8.158334e-01 0.000000e+00 0.000000e+00
1
Step 696000
Ar 8.426291e-01 0.000000e+00 0.000000e+00
1
Step 697000
Ar 9.109571e-01 0.000000e+00 0.000000e+00
1
Step 698000
Ar 8.766086e-01 0.000000e+00 0.000000e+00
1
Step 699000
Ar 7.834135e-01 0.000000e+00 0.000000e+00
1
Step 700000
Ar 7.472272e-01 0.000000e+00 0.000000e+00
1
Step 701000
Ar 8.729520e-01 0.000000e+00 0.000000e+00
1
Step 702000
Ar 9.129622e-01 0.000000e+00 0.000000e+00
1
Step 703000
Ar 8.193273e-01 0.000000e+00 0.000000e+00
1
Step 704000
Ar 8.503916e-01 0.000000e+00 0.000000e+00
1
Step 705000
Ar 8.769058e-01 0.000000e+00 0.000000e+00
1
Step 706000
Ar 7.578625e-01 0.000000e+00 0.000000e+00
1
Step 707000
Ar 7.501575e-01 0.000000e+00 0.000000e+00
1
Step 708000
Ar 8.378516e-01 0.000000e+00 0.000000e+00
1
Step 709000
Ar 8.558211e-01 0.000000e+00 0.000000e+00
1
Step 710000
Ar 8.581708e-01 0.000000e+00 0.000000e+00
1
Step 711000
Ar 8.934988e-01 0.000000e+00 0.000000e+00
1
Step 712000
Ar 6.835524e-01 0.000000e+00 0.000000e+00
1
Step 713000
Ar 9.008297e-01 0.000000e+00 0.000000e+00
1
Step 714000
Ar 8.920705e-01 0.000000e+00 0.000000e+00
1
Step 715000
Ar 8.990718e-01 0.000000e+00 0.000000e+00
1
Step 716000
Ar 8.850279e-01 0.000000e+00 0.000000e+00
1
Step 717000
Ar 8.505933e-01 0.000000e+00 0.000000e+00
1
Step 718000
Ar 8.403211e-01 0.000000e+00 0.000000e+00
1
Step 719000
Ar 8.787034e-01 0.000000e+00 0.000000e+00
1
Step 720000
Ar 8.214397e-01 0.000000e+00 0.000000e+00
1
Step 721000
Ar 7.845002e-01 0.000000e+00 0.000000e+00
1
Step 722000
Ar 8.840527e-01 0.000000e+00 0.000000e+00
1
Step 723000
Ar 8.150426e-01 0.000000e+00 0.000000e+00
1
Step 724000
Ar 7.812235e-01 0.000000e+00 0.000000e+00
1
Step 725000
Ar 8.192896e-01 0.000000e+00 0.000000e+00
1
Step 726000
Ar 8.136133e-01 0.000000e+00 0.000000e+00
1
Step 727000
Ar 7.513754e-01 0.000000e+00 0.000000e+00
1
Step 728000
Ar 8.830609e-01 0.000000e+00 0.000000e+00
1
Step 729000
Ar 7.898734e-01 0.000000e+00 0.000000e+00
1
Step 730000
Ar 7.787863e-01 0.000000e+00 0.000000e+00
1
Step 731000
Ar 8.291466e-01 0.000000e+00 0.000000e+00
1
Step 732000
Ar 8.854896e-01 0.000000e+00 0.000000e+00
1
Step 733000
Ar 6.958268e-01 0.000000e+00 0.000000e+00
1
Step 734000
Ar 8.960667e-01 0.000000e+00 0.000000e+00
1
Step 735000
Ar 8.845477e-01 0.000000e+00 0.000000e+00
1
Step 736000
Ar 8.627152e-01 0.000000e+00 0.000000e+00
1
Step 737000
Ar 8.866544e-01 0.000000e+00 0.000000e+00
1
Step 738000
Ar 9.111498e-01 0.000000e+00 0.000000e+00
1
Step 739000
Ar 8.520001e-01 0.000000e+00 0.000000e+00
1
Step 740000
Ar 7.454454e-01 0.000000e+00 0.000000e+00
1
Step 741000
Ar 7.376128e-01 0.000000e+00 0.000000e+00
1
Step 742000
Ar 9.134799e-01 0.000000e+00 0.000000e+00
1
Step 743000
Ar 9.158237e-01 0.000000e+00 0.000000e+00
1
Step 744000
Ar 7.255606e-01 0.000000e+00 0.000000e+00
1
Step 745000
Ar 6.076970e-01 0.000000e+00 0.000000e+00
1
Step 746000
Ar 8.129221e-01 0.000000e+00 0.000000e+00
1
Step 747000
Ar 7.574988e-01 0.000000e+00 0.000000e+00
1
Step 748000
Ar 9.057692e-01 0.000000e+00 0.000000e+00
1
Step 749000
Ar 9.058076e-01 0.000000e+00 0.000000e+00
1
Step 750000
Ar 8.509660e-01 0.000000e+00 0.000000e+00
1
Step 751000
Ar 8.988930e-01 0.000000e+00 0.000000e+00
1
Step 752000
Ar 9.159706e-01 0.000000e+00 0.000000e+00
1
Step 753000
Ar 8.410568e-01 0.000000e+00 0.000000e+00
1
Step 754000
Ar 8.976226e-01 0.000000e+00 0.000000e+00
1
Step 755000
Ar 9.177678e-01 0.000000e+00 0.000000e+00
1
Step 756000
Ar 7.753395e-01 0.000000e+00 0.000000e+00
1
Step 757000
Ar 8.987658e-01 0.000000e+00 0.000000e+00
1
Step 758000
Ar 9.066213e-01 0.000000e+00 0.000000e+00
1
Step 759000
Ar 8.652696e-01 0.000000e+00 0.000000e+00
1
Step 760000
Ar 5.031093e-01 0.000000e+00 0.000000e+00
1
Step 761000
Ar 9.097015e-01 0.000000e+00 0.000000e+00
1
Step 762000
Ar 8.763300e-01 0.000000e+00 0.000000e+00
1
Step 763000
Ar 8.945774e-01 0.000000e+00 0.000000e+00
1
Step 764000
Ar 8.607774e-01 0.000000e+00 0.000000e+00
1
Step 765000
Ar 7.598706e-01 0.000000e+00 0.000000e+00
1
Step 766000
Ar 7.114926e-01 0.000000e+00 0.000000e+00
1
Step 767000
Ar 9.073013e-01 0.000000e+00 0.000000e+00
1
Step 768000
Ar 8.804016e-01 0.000000e+00 0.000000e+00
1
Step 769000
Ar 8.718183e-01 0.000000e+00 0.000000e+00
1
Step 770000
Ar 8.983192e-01 0.000000e+00 0.000000e+00
1
Step 771000
Ar 8.894229e-01 0.000000e+00 0.000000e+00
1
Step 772000
Ar 8.633884e-01 0.000000e+00 0.000000e+00
1
Step 773000
Ar 8.710047e-01 0.000000e+00 0.000000e+00
1
Step 774000
Ar 7.560422e-01 0.000000e+00 0.000000e+00
1
Step 775000
Ar 8.865593e-01 0.000000e+00 0.000000e+00
1
Step 776000
Ar 8.840744e-01 0.000000e+00 0.000000e+00
1
Step 777000
Ar 7.500819e-01 0.000000e+00 0.000000e+00
1
Step 778000
Ar 8.918742e-01 0.000000e+00 0.000000e+00
1
Step 779000
Ar 8.730690e-01 0.000000e+00 0.000000e+00
1
Step 780000
Ar 8.038843e-01 0.000000e+00 0.000000e+00
1
Step 781000
Ar 8.740914e-01 0.000000e+00 0.000000e+00
1
Step 782000
Ar 8.953675e-01 0.000000e+00 0.000000e+00
1
Step 783000
Ar 8.572525e-01 0.000000e+00 0.000000e+00
1
Step 784000
Ar 8.210701e-01 0.000000e+00 0.000000e+00
1
Step 785000
Ar 8.697925e-01 0.000000e+00 0.000000e+00
1
Step 786000
Ar 7.598035e-01 0.000000e+00 0.000000e+00
1
Step 787000
Ar 8.750616e-01 0.000000e+00 0.000000e+00
1
Step 788000
Ar 8.448142e-01 0.000000e+00 0.000000e+00
1
Step 789000
Ar 8.539770e-01 0.000000e+00 0.000000e+00
1
Step 790000
Ar 8.637415e-01 0.000000e+00 0.000000e+00
1
Step 791000
Ar 8.790071e-01 0.000000e+00 0.000000e+00
1
Step 792000
Ar 8.563410e-01 0.000000e+00 0.000000e+00
1
Step 793000
Ar 7.281775e-01 0.000000e+00 0.000000e+00
1
Step 794000
Ar 8.601418e-01 0.000000e+00 0.000000e+00
1
Step 795000
Ar 8.560519e-01 0.000000e+00 0.000000e+00
1
Step 796000
Ar 8.955024e-01 0.000000e+00 0.000000e+00
1
Step 797000
Ar 8.859356e-01 0.000000e+00 0.000000e+00
1
Step 798000
Ar 8.665729e-01 0.000000e+00 0.000000e+00
1
Step 799000
Ar 7.975251e-01 0.000000e+00 0.000000e+00
1
Step 800000
Ar 5.055921e-01 0.000000e+00 0.000000e+00
1
Step 801000
Ar 8.485424e-01 0.000000e+00 0.000000e+00
1
Step 802000
Ar 8.285219e-01 0.000000e+00 0.000000e+00
1
Step 803000
Ar 8.801105e-01 0.000000e+00 0.000000e+00
1
Step 804000
Ar 7.835087e-01 0.000000e+00 0.000000e+00
1
Step 805000
Ar 7.308141e-01 0.000000e+00 0.000000e+00
1
Step 806000
Ar 8.294245e-01 0.000000e+00 0.000000e+00
1
Step 807000
Ar 8.563301e-01 0.000000e+00 0.000000e+00
1
Step 808000
Ar 8.443727e-01 0.000000e+00 0.000000e+00
1
Step 809000
Ar 8.914496e-01 0.000000e+00 0.000000e+00
1
Step 810000
Ar 8.418451e-01 0.000000e+00 0.000000e+00
1
Step 811000
Ar 7.303432e-01 0.000000e+00 0.000000e+00
1
Step 812000
Ar 8.661776e-01 0.000000e+00 0.000000e+00
1
Step 813000
Ar 8.031556e-01 0.000000e+00 0.000000e+00
1
Step 814000
Ar 8.169814e-01 0.000000e+00 0.000000e+00
1
Step 815000
Ar 7.034853e-01 0.000000e+00 0.000000e+00
1
Step 816000
Ar 7.607401e-01 0.000000e+00 0.000000e+00
1
Step 817000
Ar 8.106893e-01 0.000000e+00 0.000000e+00
1
Step 818000
Ar 8.187162e-01 0.000000e+00 0.000000e+00
1
Step 819000
Ar 7.423414e-01 0.000000e+00 0.000000e+00
1
Step 820000
Ar 7.841416e-01 0.000000e+00 0.000000e+00
1
Step 821000
Ar 9.065842e-01 0.000000e+00 0.000000e+00
1
Step 822000
Ar 8.441627e-01 0.000000e+00 0.000000e+00
1
Step 823000
Ar 9.168440e-01 0.000000e+00 0.000000e+00
1
Step 824000
Ar 8.877885e-01 0.000000e+00 0.000000e+00
1
Step 825000
Ar 8.577293e-01 0.000000e+00 0.000000e+00
1
Step 826000
Ar 7.568987e-01 0.000000e+00 0.000000e+00
1
Step 827000
Ar 8.861091e-01 0.000000e+00 0.000000e+00
1
Step 828000
Ar 7.074220e-01 0.000000e+00 0.000000e+00
1
Step 829000
Ar 8.653513e-01 0.000000e+00 0.000000e+00
1
Step 830000
Ar 8.211304e-01 0.000000e+00 0.000000e+00
1
Step 831000
Ar 8.557979e-01 0.000000e+00 0.000000e+00
1
Step 832000
Ar 7.531423e-01 0.000000e+00 0.000000e+00
1
Step 833000
Ar 8.910432e-01 0.000000e+00 0.000000e+00
1
Step 834000
Ar 8.540220e-01 0.000000e+00 0.000000e+00
1
Step 835000
Ar 8.924289e-01 0.000000e+00 0.000000e+00
1
Step 836000
Ar 8.865128e-01 0.000000e+00 0.000000e+00
1
Step 837000
Ar 8.978847e-01 0.000000e+00 0.000000e+00
1
Step 838000
Ar 8.942326e-01 0.000000e+00 0.000000e+00
1
Step 839000
Ar 8.942730e-01 0.000000e+00 0.000000e+00
1
Step 840000
Ar 9.053622e-01 0.000000e+00 0.000000e+00
1
Step 841000
Ar 8.952016e-01 0.000000e+00 0.000000e+00
1
Step 842000
Ar 8.926554e-01 0.000000e+00 0.000000e+00
1
Step 843000
Ar 6.870725e-01 0.000000e+00 0.000000e+00
1
Step 844000
Ar 8.856627e-01 0.000000e+00 0.000000e+00
1
Step 845000
Ar 8.785679e-01 0.000000e+00 0.000000e+00
1
Step 846000
Ar 8.757076e-01 0.000000e+00 0.000000e+00
1
Step 847000
Ar 8.433975e-01 0.000000e+00 0.000000e+00
1
Step 848000
Ar 8.908332e-01 0.000000e+00 0.000000e+00
1
Step 849000
Ar 6.655626e-01 0.000000e+00 0.000000e+00
1
Step 850000
Ar 8.805016e-01 0.000000e+00 0.000000e+00
1
Step 851000
Ar 7.644642e-01 0.000000e+00 0.000000e+00
1
Step 852000
Ar 9.017271e-01 0.000000e+00 0.000000e+00
1
Step 853000
Ar 9.056971e-01 0.000000e+00 0.000000e+00
1
Step 854000
Ar 6.164662e-01 0.000000e+00 0.000000e+00
1
Step 855000
Ar 9.180976e-01 0.000000e+00 0.000000e+00
1
Step 856000
Ar 7.926472e-01 0.000000e+00 0.000000e+00
1
Step 857000
Ar 9.123066e-01 0.000000e+00 0.000000e+00
1
Step 858000
Ar 8.900861e-01 0.000000e+00 0.000000e+00
1
Step 859000
Ar 8.476864e-01 0.000000e+00 0.000000e+00
1
Step 860000
Ar 8.514078e-01 0.000000e+00 0.000000e+00
1
Step 861000
Ar 9.078382e-01 0.000000e+00 0.000000e+00
1
Step 862000
Ar 6.578072e-01 0.000000e+00 0.000000e+00
1
Step 863000
Ar 8.709607e-01 0.000000e+00 0.000000e+00
1
Step 864000
Ar 8.822532e-01 0.000000e+00 0.000000e+00
1
Step 865000
Ar 7.453071e-01 0.000000e+00 0.000000e+00
1
Step 866000
Ar 9.165942e-01 0.000000e+00 0.000000e+00
1
Step 867000
Ar 7.892561e-01 0.000000e+00 0.000000e+00
1
Step 868000
Ar 9.075770e-01 0.000000e+00 0.000000e+00
1
Step 869000
Ar 7.864891e-01 0.000000e+00 0.000000e+00
1
Step 870000
Ar 8.705486e-01 0.000000e+00 0.000000e+00
1
Step 871000
Ar 7.924414e-01 0.000000e+00 0.000000e+00
1
Step 872000
Ar 9.113739e-01 0.000000e+00 0.000000e+00
1
Step 873000
Ar 9.071585e-01 0.000000e+00 0.000000e+00
1
Step 874000
Ar 8.533789e-01 0.000000e+00 0.000000e+00
1
Step 875000
Ar 7.872993e-01 0.000000e+00 0.000000e+00
1
Step 876000
Ar 7.520664e-01 0.000000e+00 0.000000e+00
1
Step 877000
Ar 8.029180e-01 0.000000e+00 0.000000e+00
1
Step 878000
Ar 7.854679e-01 0.000000e+00 0.000000e+00
1
Step 879000
Ar 7.853739e-01 0.000000e+00 0.000000e+00
1
Step 880000
Ar 8.638364e-01 0.000000e+00 0.000000e+00
1
Step 881000
Ar 8.345066e-01 0.000000e+00 0.000000e+00
1
Step 882000
Ar 8.991596e-01 0.000000e+00 0.000000e+00
1
Step 883000
Ar 7.961783e-01 0.000000e+00 0.000000e+00
1
Step 884000
Ar 9.167655e-01 0.000000e+00 0.000000e+00
1
Step 885000
Ar 7.854194e-01 0.000000e+00 0.000000e+00
1
Step 886000
Ar 7.482184e-01 0.000000e+00 0.000000e+00
1
Step 887000
Ar 8.860473e-01 0.000000e+00 0.000000e+00
1
Step 888000
Ar 8.756577e-01 0.000000e+00 0.000000e+00
1
Step 889000
Ar 7.834877e-01 0.000000e+00 0.000000e+00
1
Step 890000
Ar 8.357301e-01 0.000000e+00 0.000000e+00
1
Step 891000
Ar 8.605240e-01 0.000000e+00 0.000000e+00
1
Step 892000
Ar 8.996805e-01 0.000000e+00 0.000000e+00
1
Step 893000
Ar 8.849646e-01 0.000000e+00 0.000000e+00
1
Step 894000
Ar 7.711255e-01 0.000000e+00 0.000000e+00
1
Step 895000
Ar 9.038032e-01 0.000000e+00 0.000000e+00
1
Step 896000
Ar 9.129471e-01 0.000000e+00 0.000000e+00
1
Step 897000
Ar 8.086422e-01 0.000000e+00 0.000000e+00
1
Step 898000
Ar 8.075562e-01 0.000000e+00 0.000000e+00
1
Step 899000
Ar 7.727823e-01 0.000000e+00 0.000000e+00
1
Step 900000
Ar 7.273578e-01 0.000000e+00 0.000000e+00
1
Step 901000
Ar 7.834245e-01 0.000000e+00 0.000000e+00
1
Step 902000
Ar 8.946702e-01 0.000000e+00 0.000000e+00
1
Step 903000
Ar 9.071111e-01 0.000000e+00 0.000000e+00
1
Step 904000
Ar 7.503836e-01 0.000000e+00 0.000000e+00
1
Step 905000
Ar 9.046659e-01 0.000000e+00 0.000000e+00
1
Step 906000
Ar 8.197511e-01 0.000000e+00 0.000000e+00
1
Step 907000
Ar 8.673055e-01 0.000000e+00 0.000000e+00
1
Step 908000
Ar 9.093883e-01 0.000000e+00 0.000000e+00
1
Step 909000
Ar 9.074960e-01 0.000000e+00 0.000000e+00
1
Step 910000
Ar 6.835618e-01 0.000000e+00 0.000000e+00
1
Step 911000
Ar 8.635770e-01 0.000000e+00 0.000000e+00
1
Step 912000
Ar 6.814369e-01 0.000000e+00 0.000000e+00
1
Step 913000
Ar 8.758427e-01 0.000000e+00 0.000000e+00
1
Step 914000
Ar 8.845625e-01 0.000000e+00 0.000000e+00
1
Step 915000
Ar 8.398053e-01 0.000000e+00 0.000000e+00
1
Step 916000
Ar 8.698524e-01 0.000000e+00 0.000000e+00
1
Step 917000
Ar 8.945620e-01 0.000000e+00 0.000000e+00
1
Step 918000
Ar 6.952580e-01 0.000000e+00 0.000000e+00
1
Step 919000
Ar 8.670870e-01 0.000000e+00 0.000000e+00
1
Step 920000
Ar 9.087767e-01 0.000000e+00 0.000000e+00
1
Step 921000
Ar 8.590989e-01 0.000000e+00 0.000000e+00
1
Step 922000
Ar 8.176575e-01 0.000000e+00 0.000000e+00
1
Step 923000
Ar 8.644626e-01 0.000000e+00 0.000000e+00
1
Step 924000
Ar 9.159473e-01 0.000000e+00 0.000000e+00
1
Step 925000
Ar 8.650664e-01 0.000000e+00 0.000000e+00
1
Step 926000
Ar 8.660833e-01 0.000000e+00 0.000000e+00
1
Step 927000
Ar 8.609615e-01 0.000000e+00 0.000000e+00
1
Step 928000
Ar 9.059599e-01 0.000000e+00 0.000000e+00
1
Step 929000
Ar 7.911569e-01 0.000000e+00 0.000000e+00
1
Step 930000
Ar 9.180846e-01 0.000000e+00 0.000000e+00
1
Step 931000
Ar 9.054073e-01 0.000000e+00 0.000000e+00
1
Step 932000
Ar 7.402381e-01 0.000000e+00 0.000000e+00
1
Step 933000
Ar 8.678776e-01 0.000000e+00 0.000000e+00
1
Step 934000
Ar 9.123201e-01 0.000000e+00 0.000000e+00
1
Step 935000
Ar 7.754466e-01 0.000000e+00 0.000000e+00
1
Step 936000
Ar 8.600917e-01 0.000000e+00 0.000000e+00
1
Step 937000
Ar 8.941428e-01 0.000000e+00 0.000000e+00
1
Step 938000
Ar 8.551779e-01 0.000000e+00 0.000000e+00
1
Step 939000
Ar 8.764590e-01 0.000000e+00 0.000000e+00
1
Step 940000
Ar 8.879886e-01 0.000000e+00 0.000000e+00
1
Step 941000
Ar 8.038857e-01 0.000000e+00 0.000000e+00
1
Step 942000
Ar 8.732564e-01 0.000000e+00 0.000000e+00
1
Step 943000
Ar 8.445058e-01 0.000000e+00 0.000000e+00
1
Step 944000
Ar 8.127151e-01 0.000000e+00 0.000000e+00
1
Step 945000
Ar 8.257982e-01 0.000000e+00 0.000000e+00
1
Step 946000
Ar 8.141053e-01 0.000000e+00 0.000000e+00
1
Step 947000
Ar 9.170617e-01 0.000000e+00 0.000000e+00
1
Step 948000
Ar 8.248424e-01 0.000000e+00 0.000000e+00
1
Step 949000
Ar 8.649370e-01 0.000000e+00 0.000000e+00
1
Step 950000
Ar 7.964565e-01 0.000000e+00 0.000000e+00
1
Step 951000
Ar 8.867256e-01 0.000000e+00 0.000000e+00
1
Step 952000
Ar 8.462542e-01 0.000000e+00 0.000000e+00
1
Step 953000
Ar 8.003735e-01 0.000000e+00 0.000000e+00
1
Step 954000
Ar 7.728588e-01 0.000000e+00 0.000000e+00
1
Step 955000
Ar 8.725569e-01 0.000000e+00 0.000000e+00
1
Step 956000
Ar 7.295358e-01 0.000000e+00 0.000000e+00
1
Step 957000
Ar 8.850052e-01 0.000000e+00 0.000000e+00
1
Step 958000
Ar 9.171671e-01 0.000000e+00 0.000000e+00
1
Step 959000
Ar 8.624720e-01 0.000000e+00 0.000000e+00
1
Step 960000
Ar 8.272788e-01 0.000000e+00 0.000000e+00
1
Step 961000
Ar 8.244020e-01 0.000000e+00 0.000000e+00
1
Step 962000
Ar 6.408375e-01 0.000000e+00 0.000000e+00
1
Step 963000
Ar 8.741515e-01 0.000000e+00 0.000000e+00
1
Step 964000
Ar 8.571201e-01 0.000000e+00 0.000000e+00
1
Step 965000
Ar 8.837397e-01 0.000000e+00 0.000000e+00
1
Step 966000
Ar 8.448080e-01 0.000000e+00 0.000000e+00
1
Step 967000
Ar 8.793866e-01 0.000000e+00 0.000000e+00
1
Step 968000
Ar 8.014832e-01 0.000000e+00 0.000000e+00
1
Step 969000
Ar 8.701346e-01 0.000000e+00 0.000000e+00
1
Step 970000
Ar 8.098541e-01 0.000000e+00 0.000000e+00
1
Step 971000
Ar 8.716547e-01 0.000000e+00 0.000000e+00
1
Step 972000
Ar 9.110738e-01 0.000000e+00 0.000000e+00
1
Step 973000
Ar 7.184315e-01 0.000000e+00 0.000000e+00
1
Step 974000
Ar 8.663944e-01 0.000000e+00 0.000000e+00
1
Step 975000
Ar 8.038741e-01 0.000000e+00 0.000000e+00
1
Step 976000
Ar 8.662418e-01 0.000000e+00 0.000000e+00
1
Step 977000
Ar 8.929782e-01 0.000000e+00 0.000000e+00
1
Step 978000
Ar 8.760225e-01 0.000000e+00 0.000000e+00
1
Step 979000
Ar 7.570406e-01 0.000000e+00 0.000000e+00
1
Step 980000
Ar 8.572066e-01 0.000000e+00 0.000000e+00
1
Step 981000
Ar 8.612363e-01 0.000000e+00 0.000000e+00
1
Step 982000
Ar 7.516387e-01 0.000000e+00 0.000000e+00
1
Step 983000
Ar 8.905925e-01 0.000000e+00 0.000000e+00
1
Step 984000
Ar 7.800475e-01 0.000000e+00 0.000000e+00
1
Step 985000
Ar 8.351241e-01 0.000000e+00 0.000000e+00
1
Step 986000
Ar 8.717396e-01 0.000000e+00 0.000000e+00
1
Step 987000
Ar 8.299360e-01 0.000000e+00 0.000000e+00
1
Step 988000
Ar 8.744612e-01 0.000000e+00 0.000000e+00
1
Step 989000
Ar 7.089264e-01 0.000000e+00 0.000000e+00
1
Step 990000
Ar 8.577745e-01 0.000000e+00 0.000000e+00
1
Step 991000
Ar 6.690792e-01 0.000000e+00 0.000000e+00
1
Step 992000
Ar 8.123259e-01 0.000000e+00 0.000000e+00
1
Step 993000
Ar 7.986960e-01 0.000000e+00 0.000000e+00
1
Step 994000
Ar 8.819385e-01 0.000000e+00 0.000000e+00
1
Step 995000
Ar 8.289275e-01 0.000000e+00 0.000000e+00
1
Step 996000
Ar 7.914768e-01 0.000000e+00 0.000000e+00
1
Step 997000
Ar 9.004441e-01 0.000000e+00 0.000000e+00
1
Step 998000
Ar 8.721626e-01 0.000000e+00 0.000000e+00
1
Step 999000
Ar 8.607472e-01 0.000000e+00 0.000000e+00
