1
Step 120000
Ar 1.166543e+00 0.000000e+00 0.000000e+00
1
Step 121000
Ar 1.014755e+00 0.000000e+00 0.000000e+00
1
Step 122000
Ar 1.024354e+00 0.000000e+00 0.000000e+00
1
Step 123000
Ar 9.580570e-01 0.000000e+00 0.000000e+00
1
Step 124000
Ar 9.045522e-01 0.000000e+00 0.000000e+00
1
Step 125000
Ar 8.060862e-01 0.000000e+00 0.000000e+00
1
Step 126000
Ar 1.018111e+00 0.000000e+00 0.000000e+00
1
Step 127000
Ar 1.130466e+00 0.000000e+00 0.000000e+00
1
Step 128000
Ar 1.075640e+00 0.000000e+00 0.000000e+00
1
Step 129000
Ar 8.456715e-01 0.000000e+00 0.000000e+00
1
Step 130000
Ar 9.558478e-01 0.000000e+00 0.000000e+00
1
Step 131000
Ar 1.095482e+00 0.000000e+00 0.000000e+00
1
Step 132000
Ar 6.671595e-01 0.000000e+00 0.000000e+00
1
Step 133000
Ar 9.646760e-01 0.000000e+00 0.000000e+00
1
Step 134000
Ar 1.102816e+00 0.000000e+00 0.000000e+00
1
Step 135000
Ar 8.343152e-01 0.000000e+00 0.000000e+00
1
Step 136000
Ar 1.056879e+00 0.000000e+00 0.000000e+00
1
Step 137000
Ar 9.283938e-01 0.000000e+00 0.000000e+00
1
Step 138000
Ar 7.189845e-01 0.000000e+00 0.000000e+00
1
Step 139000
Ar 9.693679e-01 0.000000e+00 0.000000e+00
1
Step 140000
Ar 1.026972e+00 0.000000e+00 0.000000e+00
1
Step 141000
Ar 9.858538e-01 0.000000e+00 0.000000e+00
1
Step 142000
Ar 9.258800e-01 0.000000e+00 0.000000e+00
1
Step 143000
Ar 9.851220e-01 0.000000e+00 0.000000e+00
1
Step 144000
Ar 1.010611e+00 0.000000e+00 0.000000e+00
1
Step 145000
Ar 9.848848e-01 0.000000e+00 0.000000e+00
1
Step 146000
Ar 7.607143e-01 0.000000e+00 0.000000e+00
1
Step 147000
Ar 1.012480e+00 0.000000e+00 0.000000e+00
1
Step 148000
Ar 1.219134e+00 0.000000e+00 0.000000e+00
1
Step 149000
Ar 8.184091e-01 0.000000e+00 0.000000e+00
1
Step 150000
Ar 9.747412e-01 0.000000e+00 0.000000e+00
1
Step 151000
Ar 9.358557e-01 0.000000e+00 0.000000e+00
1
Step 152000
Ar 1.126692e+00 0.000000e+00 0.000000e+00
1
Step 153000
Ar 7.992524e-01 0.000000e+00 0.000000e+00
1
Step 154000
Ar 7.762518e-01 0.000000e+00 0.000000e+00
1
Step 155000
Ar 8.976070e-01 0.000000e+00 0.000000e+00
1
Step 156000
Ar 1.044835e+00 0.000000e+00 0.000000e+00
1
Step 157000
Ar 1.010913e+00 0.000000e+00 0.000000e+00
1
Step 158000
Ar 8.863748e-01 0.000000e+00 0.000000e+00
1
Step 159000
Ar 1.064961e+00 0.000000e+00 0.000000e+00
1
Step 160000
Ar 9.704523e-01 0.000000e+00 0.000000e+00
1
Step 161000
Ar 1.127312e+00 0.000000e+00 0.000000e+00
1
Step 162000
Ar 9.052658e-01 0.000000e+00 0.000000e+00
1
Step 163000
Ar 1.235406e+00 0.000000e+00 0.000000e+00
1
Step 164000
Ar 1.058232e+00 0.000000e+00 0.000000e+00
1
Step 165000
Ar 1.104467e+00 0.000000e+00 0.000000e+00
1
Step 166000
Ar 8.903760e-01 0.000000e+00 0.000000e+00
1
Step 167000
Ar 1.005350e+00 0.000000e+00 0.000000e+00
1
Step 168000
Ar 1.078003e+00 0.000000e+00 0.000000e+00
1
Step 169000
Ar 1.125773e+00 0.000000e+00 0.000000e+00
1
Step 170000
Ar 1.019376e+00 0.000000e+00 0.000000e+00
1
Step 171000
Ar 1.093497e+00 0.000000e+00 0.000000e+00
1
Step 172000
Ar 8.774523e-01 0.000000e+00 0.000000e+00
1
Step 173000
Ar 7.589975e-01 0.000000e+00 0.000000e+00
1
Step 174000
Ar 1.036741e+00 0.000000e+00 0.000000e+00
1
Step 175000
Ar 9.673446e-01 0.000000e+00 0.000000e+00
1
Step 176000
Ar 9.668442e-01 0.000000e+00 0.000000e+00
1
Step 177000
Ar 9.702941e-01 0.000000e+00 0.000000e+00
1
Step 178000
Ar 1.025408e+00 0.000000e+00 0.000000e+00
1
Step 179000
Ar 1.001325e+00 0.000000e+00 0.000000e+00
1
Step 180000
Ar 1.051277e+00 0.000000e+00 0.000000e+00
1
Step 181000
Ar 8.975661e-01 0.000000e+00 0.000000e+00
1
Step 182000
Ar 1.039940e+00 0.000000e+00 0.000000e+00
1
Step 183000
Ar 1.005699e+00 0.000000e+00 0.000000e+00
1
Step 184000
Ar 1.052932e+00 0.000000e+00 0.000000e+00
1
Step 185000
Ar 1.053213e+00 0.000000e+00 0.000000e+00
1
Step 186000
Ar 1.035378e+00 0.000000e+00 0.000000e+00
1
Step 187000
Ar 9.304799e-01 0.000000e+00 0.000000e+00
1
Step 188000
Ar 1.161875e+00 0.000000e+00 0.000000e+00
1
Step 189000
Ar 9.163042e-01 0.000000e+00 0.000000e+00
1
Step 190000
Ar 9.948945e-01 0.000000e+00 0.000000e+00
1
Step 191000
Ar 8.990736e-01 0.000000e+00 0.000000e+00
1
Step 192000
Ar 9.902918e-01 0.000000e+00 0.000000e+00
1
Step 193000
Ar 1.080064e+00 0.000000e+00 0.000000e+00
1
Step 194000
Ar 9.757833e-01 0.000000e+00 0.000000e+00
1
Step 195000
Ar 9.575970e-01 0.000000e+00 0.000000e+00
1
Step 196000
Ar 8.874326e-01 0.000000e+00 0.000000e+00
1
Step 197000
Ar 7.724766e-01 0.000000e+00 0.000000e+00
1
Step 198000
Ar 8.464855e-01 0.000000e+00 0.000000e+00
1
Step 199000
Ar 1.099540e+00 0.000000e+00 0.000000e+00
1
Step 200000
Ar 1.021753e+00 0.000000e+00 0.000000e+00
1
Step 201000
Ar 8.069497e-01 0.000000e+00 0.000000e+00
1
Step 202000
Ar 1.031991e+00 0.000000e+00 0.000000e+00
1
Step 203000
Ar 8.683301e-01 0.000000e+00 0.000000e+00
1
Step 204000
Ar 1.172886e+00 0.000000e+00 0.000000e+00
1
Step 205000
Ar 1.013445e+00 0.000000e+00 0.000000e+00
1
Step 206000
Ar 9.686092e-01 0.000000e+00 0.000000e+00
1
Step 207000
Ar 1.031350e+00 0.000000e+00 0.000000e+00
1
Step 208000
Ar 1.033172e+00 0.000000e+00 0.000000e+00
1
Step 209000
Ar 9.825468e-01 0.000000e+00 0.000000e+00
1
Step 210000
Ar 1.054960e+00 0.000000e+00 0.000000e+00
1
Step 211000
Ar 1.015343e+00 0.000000e+00 0.000000e+00
1
Step 212000
Ar 6.191464e-01 0.000000e+00 0.000000e+00
1
Step 213000
Ar 8.667330e-01 0.000000e+00 0.000000e+00
1
Step 214000
Ar 9.951579e-01 0.000000e+00 0.000000e+00
1
Step 215000
Ar 1.001284e+00 0.000000e+00 0.000000e+00
1
Step 216000
Ar 9.892174e-01 0.000000e+00 0.000000e+00
1
Step 217000
Ar 9.883088e-01 0.000000e+00 0.000000e+00
1
Step 218000
Ar 1.109041e+00 0.000000e+00 0.000000e+00
1
Step 219000
Ar 8.654189e-01 0.000000e+00 0.000000e+00
1
Step 220000
Ar 9.525463e-01 0.000000e+00 0.000000e+00
1
Step 221000
Ar 9.730065e-01 0.000000e+00 0.000000e+00
1
Step 222000
Ar 1.127864e+00 0.000000e+00 0.000000e+00
1
Step 223000
Ar 1.005565e+00 0.000000e+00 0.000000e+00
1
Step 224000
Ar 1.008035e+00 0.000000e+00 0.000000e+00
1
Step 225000
Ar 1.030768e+00 0.000000e+00 0.000000e+00
1
Step 226000
Ar 1.070420e+00 0.000000e+00 0.000000e+00
1
Step 227000
Ar 1.005020e+00 0.000000e+00 0.000000e+00
1
Step 228000
Ar 1.243197e+00 0.000000e+00 0.000000e+00
1
Step 229000
Ar 1.041600e+00 0.000000e+00 0.000000e+00
1
Step 230000
Ar 1.000126e+00 0.000000e+00 0.000000e+00
1
Step 231000
Ar 1.014148e+00 0.000000e+00 0.000000e+00
1
Step 232000
Ar 9.820686e-01 0.000000e+00 0.000000e+00
1
Step 233000
Ar 1.141574e+00 0.000000e+00 0.000000e+00
1
Step 234000
Ar 1.019034e+00 0.000000e+00 0.000000e+00
1
Step 235000
Ar 1.075636e+00 0.000000e+00 0.000000e+00
1
Step 236000
Ar 1.056530e+00 0.000000e+00 0.000000e+00
1
Step 237000
Ar 1.096367e+00 0.000000e+00 0.000000e+00
1
Step 238000
Ar 1.081358e+00 0.000000e+00 0.000000e+00
1
Step 239000
Ar 9.801814e-01 0.000000e+00 0.000000e+00
1
Step 240000
Ar 9.982254e-01 0.000000e+00 0.000000e+00
1
Step 241000
Ar 1.085462e+00 0.000000e+00 0.000000e+00
1
Step 242000
Ar 9.834778e-01 0.000000e+00 0.000000e+00
1
Step 243000
Ar 1.171912e+00 0.000000e+00 0.000000e+00
1
Step 244000
Ar 1.078869e+00 0.000000e+00 0.000000e+00
1
Step 245000
Ar 1.158197e+00 0.000000e+00 0.000000e+00
1
Step 246000
Ar 1.067739e+00 0.000000e+00 0.000000e+00
1
Step 247000
Ar 9.929164e-01 0.000000e+00 0.000000e+00
1
Step 248000
Ar 1.117107e+00 0.000000e+00 0.000000e+00
1
Step 249000
Ar 1.002434e+00 0.000000e+00 0.000000e+00
1
Step 250000
Ar 1.036176e+00 0.000000e+00 0.000000e+00
1
Step 251000
Ar 1.180085e+00 0.000000e+00 0.000000e+00
1
Step 252000
Ar 1.197680e+00 0.000000e+00 0.000000e+00
1
Step 253000
Ar 1.015025e+00 0.000000e+00 0.000000e+00
1
Step 254000
Ar 1.036360e+00 0.000000e+00 0.000000e+00
1
Step 255000
Ar 1.028481e+00 0.000000e+00 0.000000e+00
1
Step 256000
Ar 1.106991e+00 0.000000e+00 0.000000e+00
1
Step 257000
Ar 9.925131e-01 0.000000e+00 0.000000e+00
1
Step 258000
Ar 9.903602e-01 0.000000e+00 0.000000e+00
1
Step 259000
Ar 1.036507e+00 0.000000e+00 0.000000e+00
1
Step 260000
Ar 1.044309e+00 0.000000e+00 0.000000e+00
1
Step 261000
Ar 1.092151e+00 0.000000e+00 0.000000e+00
1
Step 262000
Ar 1.111356e+00 0.000000e+00 0.000000e+00
1
Step 263000
Ar 1.060283e+00 0.000000e+00 0.000000e+00
1
Step 264000
Ar 1.058766e+00 0.000000e+00 0.000000e+00
1
Step 265000
Ar 1.073030e+00 0.000000e+00 0.000000e+00
1
Step 266000
Ar 1.053875e+00 0.000000e+00 0.000000e+00
1
Step 267000
Ar 1.080073e+00 0.000000e+00 0.000000e+00
1
Step 268000
Ar 1.129925e+00 0.000000e+00 0.000000e+00
1
Step 269000
Ar 1.067094e+00 0.000000e+00 0.000000e+00
1
Step 270000
Ar 1.058796e+00 0.000000e+00 0.000000e+00
1
Step 271000
Ar 1.009898e+00 0.000000e+00 0.000000e+00
1
Step 272000
Ar 1.059892e+00 0.000000e+00 0.000000e+00
1
Step 273000
Ar 1.002588e+00 0.000000e+00 0.000000e+00
1
Step 274000
Ar 1.064960e+00 0.000000e+00 0.000000e+00
1
Step 275000
Ar 1.086148e+00 0.000000e+00 0.000000e+00
1
Step 276000
Ar 1.089589e+00 0.000000e+00 0.000000e+00
1
Step 277000
Ar 1.145807e+00 0.000000e+00 0.000000e+00
1
Step 278000
Ar 1.130108e+00 0.000000e+00 0.000000e+00
1
Step 279000
Ar 1.056148e+00 0.000000e+00 0.000000e+00
1
Step 280000
Ar 1.031055e+00 0.000000e+00 0.000000e+00
1
Step 281000
Ar 9.892831e-01 0.000000e+00 0.000000e+00
1
Step 282000
Ar 9.742207e-01 0.000000e+00 0.000000e+00
1
Step 283000
Ar 1.047143e+00 0.000000e+00 0.000000e+00
1
Step 284000
Ar 1.121024e+00 0.000000e+00 0.000000e+00
1
Step 285000
Ar 1.076143e+00 0.000000e+00 0.000000e+00
1
Step 286000
Ar 9.941596e-01 0.000000e+00 0.000000e+00
1
Step 287000
Ar 1.044692e+00 0.000000e+00 0.000000e+00
1
Step 288000
Ar 1.004749e+00 0.000000e+00 0.000000e+00
1
Step 289000
Ar 1.062946e+00 0.000000e+00 0.000000e+00
1
Step 290000
Ar 1.017126e+00 0.000000e+00 0.000000e+00
1
Step 291000
Ar 1.105540e+00 0.000000e+00 0.000000e+00
1
Step 292000
Ar 1.069362e+00 0.000000e+00 0.000000e+00
1
Step 293000
Ar 1.137345e+00 0.000000e+00 0.000000e+00
1
Step 294000
Ar 1.032172e+00 0.000000e+00 0.000000e+00
1
Step 295000
Ar 9.810184e-01 0.000000e+00 0.000000e+00
1
Step 296000
Ar 9.655917e-01 0.000000e+00 0.000000e+00
1
Step 297000
Ar 1.035881e+00 0.000000e+00 0.000000e+00
1
Step 298000
Ar 1.111013e+00 0.000000e+00 0.000000e+00
1
Step 299000
Ar 1.053059e+00 0.000000e+00 0.000000e+00
1
Step 300000
Ar 1.004581e+00 0.000000e+00 0.000000e+00
1
Step 301000
Ar 1.080113e+00 0.000000e+00 0.000000e+00
1
Step 302000
Ar 1.129241e+00 0.000000e+00 0.000000e+00
1
Step 303000
Ar 1.074869e+00 0.000000e+00 0.000000e+00
1
Step 304000
Ar 1.036364e+00 0.000000e+00 0.000000e+00
1
Step 305000
Ar 1.018701e+00 0.000000e+00 0.000000e+00
1
Step 306000
Ar 9.798835e-01 0.000000e+00 0.000000e+00
1
Step 307000
Ar 1.028881e+00 0.000000e+00 0.000000e+00
1
Step 308000
Ar 1.178376e+00 0.000000e+00 0.000000e+00
1
Step 309000
Ar 1.094829e+00 0.000000e+00 0.000000e+00
1
Step 310000
Ar 1.070408e+00 0.000000e+00 0.000000e+00
1
Step 311000
Ar 1.030719e+00 0.000000e+00 0.000000e+00
1
Step 312000
Ar 9.988095e-01 0.000000e+00 0.000000e+00
1
Step 313000
Ar 9.975645e-01 0.000000e+00 0.000000e+00
1
Step 314000
Ar 1.000002e+00 0.000000e+00 0.000000e+00
1
Step 315000
Ar 1.067297e+00 0.000000e+00 0.000000e+00
1
Step 316000
Ar 1.031485e+00 0.000000e+00 0.000000e+00
1
Step 317000
Ar 1.057986e+00 0.000000e+00 0.000000e+00
1
Step 318000
Ar 9.839797e-01 0.000000e+00 0.000000e+00
1
Step 319000
Ar 1.077702e+00 0.000000e+00 0.000000e+00
1
Step 320000
Ar 9.911790e-01 0.000000e+00 0.000000e+00
1
Step 321000
Ar 1.081800e+00 0.000000e+00 0.000000e+00
1
Step 322000
Ar 1.045274e+00 0.000000e+00 0.000000e+00
1
Step 323000
Ar 9.962766e-01 0.000000e+00 0.000000e+00
1
Step 324000
Ar 1.045162e+00 0.000000e+00 0.000000e+00
1
Step 325000
Ar 1.027437e+00 0.000000e+00 0.000000e+00
1
Step 326000
Ar 1.021737e+00 0.000000e+00 0.000000e+00
1
Step 327000
Ar 1.005418e+00 0.000000e+00 0.000000e+00
1
Step 328000
Ar 1.030443e+00 0.000000e+00 0.000000e+00
1
Step 329000
Ar 9.690126e-01 0.000000e+00 0.000000e+00
1
Step 330000
Ar 1.010334e+00 0.000000e+00 0.000000e+00
1
Step 331000
Ar 9.888244e-01 0.000000e+00 0.000000e+00
1
Step 332000
Ar 1.122673e+00 0.000000e+00 0.000000e+00
1
Step 333000
Ar 1.032084e+00 0.000000e+00 0.000000e+00
1
Step 334000
Ar 1.068105e+00 0.000000e+00 0.000000e+00
1
Step 335000
Ar 1.047645e+00 0.000000e+00 0.000000e+00
1
Step 336000
Ar 1.000201e+00 0.000000e+00 0.000000e+00
1
Step 337000
Ar 1.028545e+00 0.000000e+00 0.000000e+00
1
Step 338000
Ar 1.039073e+00 0.000000e+00 0.000000e+00
1
Step 339000
Ar 1.113417e+00 0.000000e+00 0.000000e+00
1
Step 340000
Ar 1.077755e+00 0.000000e+00 0.000000e+00
1
Step 341000
Ar 1.087097e+00 0.000000e+00 0.000000e+00
1
Step 342000
Ar 1.071055e+00 0.000000e+00 0.000000e+00
1
Step 343000
Ar 1.047062e+00 0.000000e+00 0.000000e+00
1
Step 344000
Ar 1.025991e+00 0.000000e+00 0.000000e+00
1
Step 345000
Ar 9.785061e-01 0.000000e+00 0.000000e+00
1
Step 346000
Ar 9.964129e-01 0.000000e+00 0.000000e+00
1
Step 347000
Ar 1.081399e+00 0.000000e+00 0.000000e+00
1
Step 348000
Ar 1.091368e+00 0.000000e+00 0.000000e+00
1
Step 349000
Ar 1.195400e+00 0.000000e+00 0.000000e+00
1
Step 350000
Ar 1.109435e+00 0.000000e+00 0.000000e+00
1
Step 351000
Ar 1.015230e+00 0.000000e+00 0.000000e+00
1
Step 352000
Ar 1.073436e+00 0.000000e+00 0.000000e+00
1
Step 353000
Ar 1.022328e+00 0.000000e+00 0.000000e+00
1
Step 354000
Ar 9.745615e-01 0.000000e+00 0.000000e+00
1
Step 355000
Ar 1.155887e+00 0.000000e+00 0.000000e+00
1
Step 356000
Ar 1.071544e+00 0.000000e+00 0.000000e+00
1
Step 357000
Ar 9.909655e-01 0.000000e+00 0.000000e+00
1
Step 358000
Ar 1.028506e+00 0.000000e+00 0.000000e+00
1
Step 359000
Ar 1.144372e+00 0.000000e+00 0.000000e+00
1
Step 360000
Ar 1.059526e+00 0.000000e+00 0.000000e+00
1
Step 361000
Ar 9.847933e-01 0.000000e+00 0.000000e+00
1
Step 362000
Ar 9.694657e-01 0.000000e+00 0.000000e+00
1
Step 363000
Ar 9.927053e-01 0.000000e+00 0.000000e+00
1
Step 364000
Ar 1.085353e+00 0.000000e+00 0.000000e+00
1
Step 365000
Ar 1.110441e+00 0.000000e+00 0.000000e+00
1
Step 366000
Ar 1.096159e+00 0.000000e+00 0.000000e+00
1
Step 367000
Ar 1.173767e+00 0.000000e+00 0.000000e+00
1
Step 368000
Ar 9.709593e-01 0.000000e+00 0.000000e+00
1
Step 369000
Ar 1.037839e+00 0.000000e+00 0.000000e+00
1
Step 370000
Ar 1.003493e+00 0.000000e+00 0.000000e+00
1
Step 371000
Ar 1.052911e+00 0.000000e+00 0.000000e+00
1
Step 372000
Ar 1.030463e+00 0.000000e+00 0.000000e+00
1
Step 373000
Ar 1.067099e+00 0.000000e+00 0.000000e+00
1
Step 374000
Ar 1.143107e+00 0.000000e+00 0.000000e+00
1
Step 375000
Ar 9.754968e-01 0.000000e+00 0.000000e+00
1
Step 376000
Ar 1.030613e+00 0.000000e+00 0.000000e+00
1
Step 377000
Ar 1.135387e+00 0.000000e+00 0.000000e+00
1
Step 378000
Ar 1.132956e+00 0.000000e+00 0.000000e+00
1
Step 379000
Ar 1.158334e+00 0.000000e+00 0.000000e+00
1
Step 380000
Ar 1.088183e+00 0.000000e+00 0.000000e+00
1
Step 381000
Ar 9.823259e-01 0.000000e+00 0.000000e+00
1
Step 382000
Ar 1.221426e+00 0.000000e+00 0.000000e+00
1
Step 383000
Ar 9.727458e-01 0.000000e+00 0.000000e+00
1
Step 384000
Ar 1.147753e+00 0.000000e+00 0.000000e+00
1
Step 385000
Ar 1.019534e+00 0.000000e+00 0.000000e+00
1
Step 386000
Ar 1.029463e+00 0.000000e+00 0.000000e+00
1
Step 387000
Ar 1.117521e+00 0.000000e+00 0.000000e+00
1
Step 388000
Ar 1.025949e+00 0.000000e+00 0.000000e+00
1
Step 389000
Ar 1.016106e+00 0.000000e+00 0.000000e+00
1
Step 390000
Ar 1.040319e+00 0.000000e+00 0.000000e+00
1
Step 391000
Ar 9.831243e-01 0.000000e+00 0.000000e+00
1
Step 392000
Ar 1.095271e+00 0.000000e+00 0.000000e+00
1
Step 393000
Ar 1.030690e+00 0.000000e+00 0.000000e+00
1
Step 394000
Ar 9.796504e-01 0.000000e+00 0.000000e+00
1
Step 395000
Ar 1.265753e+00 0.000000e+00 0.000000e+00
1
Step 396000
Ar 1.007048e+00 0.000000e+00 0.000000e+00
1
Step 397000
Ar 1.023309e+00 0.000000e+00 0.000000e+00
1
Step 398000
Ar 1.057034e+00 0.000000e+00 0.000000e+00
1
Step 399000
Ar 9.748315e-01 0.000000e+00 0.000000e+00
1
Step 400000
Ar 1.052556e+00 0.000000e+00 0.000000e+00
1
Step 401000
Ar 1.196433e+00 0.000000e+00 0.000000e+00
1
Step 402000
Ar 1.003981e+00 0.000000e+00 0.000000e+00
1
Step 403000
Ar 1.064027e+00 0.000000e+00 0.000000e+00
1
Step 404000
Ar 1.134479e+00 0.000000e+00 0.000000e+00
1
Step 405000
Ar 9.786736e-01 0.000000e+00 0.000000e+00
1
Step 406000
Ar 9.760076e-01 0.000000e+00 0.000000e+00
1
Step 407000
Ar 1.124473e+00 0.000000e+00 0.000000e+00
1
Step 408000
Ar 1.247928e+00 0.000000e+00 0.000000e+00
1
Step 409000
Ar 9.936981e-01 0.000000e+00 0.000000e+00
1
Step 410000
Ar 1.088748e+00 0.000000e+00 0.000000e+00
1
Step 411000
Ar 9.796267e-01 0.000000e+00 0.000000e+00
1
Step 412000
Ar 1.048499e+00 0.000000e+00 0.000000e+00
1
Step 413000
Ar 1.186723e+00 0.000000e+00 0.000000e+00
1
Step 414000
Ar 1.086442e+00 0.000000e+00 0.000000e+00
1
Step 415000
Ar 1.053671e+00 0.000000e+00 0.000000e+00
1
Step 416000
Ar 1.093256e+00 0.000000e+00 0.000000e+00
1
Step 417000
Ar 9.968587e-01 0.000000e+00 0.000000e+00
1
Step 418000
Ar 1.117010e+00 0.000000e+00 0.000000e+00
1
Step 419000
Ar 1.131062e+00 0.000000e+00 0.000000e+00
1
Step 420000
Ar 9.826414e-01 0.000000e+00 0.000000e+00
1
Step 421000
Ar 1.057041e+00 0.000000e+00 0.000000e+00
1
Step 422000
Ar 1.014093e+00 0.000000e+00 0.000000e+00
1
Step 423000
Ar 1.009002e+00 0.000000e+00 0.000000e+00
1
Step 424000
Ar 1.004480e+00 0.000000e+00 0.000000e+00
1
Step 425000
Ar 1.115585e+00 0.000000e+00 0.000000e+00
1
Step 426000
Ar 1.173750e+00 0.000000e+00 0.000000e+00
1
Step 427000
Ar 1.054679e+00 0.000000e+00 0.000000e+00
1
Step 428000
Ar 1.170784e+00 0.000000e+00 0.000000e+00
1
Step 429000
Ar 1.081115e+00 0.000000e+00 0.000000e+00
1
Step 430000
Ar 1.047629e+00 0.000000e+00 0.000000e+00
1
Step 431000
Ar 1.014478e+00 0.000000e+00 0.000000e+00
1
Step 432000
Ar 1.093211e+00 0.000000e+00 0.000000e+00
1
Step 433000
Ar 1.051793e+00 0.000000e+00 0.000000e+00
1
Step 434000
Ar 1.203797e+00 0.000000e+00 0.000000e+00
1
Step 435000
Ar 1.001615e+00 0.000000e+00 0.000000e+00
1
Step 436000
Ar 1.062284e+00 0.000000e+00 0.000000e+00
1
Step 437000
Ar 9.914893e-01 0.000000e+00 0.000000e+00
1
Step 438000
Ar 9.812934e-01 0.000000e+00 0.000000e+00
1
Step 439000
Ar 1.036236e+00 0.000000e+00 0.000000e+00
1
Step 440000
Ar 1.055546e+00 0.000000e+00 0.000000e+00
1
Step 441000
Ar 1.072646e+00 0.000000e+00 0.000000e+00
1
Step 442000
Ar 9.990827e-01 0.000000e+00 0.000000e+00
1
Step 443000
Ar 1.056939e+00 0.000000e+00 0.000000e+00
1
Step 444000
Ar 1.126652e+00 0.000000e+00 0.000000e+00
1
Step 445000
Ar 9.705543e-01 0.000000e+00 0.000000e+00
1
Step 446000
Ar 1.034941e+00 0.000000e+00 0.000000e+00
1
Step 447000
Ar 1.059664e+00 0.000000e+00 0.000000e+00
1
Step 448000
Ar 1.205000e+00 0.000000e+00 0.000000e+00
1
Step 449000
Ar 1.088861e+00 0.000000e+00 0.000000e+00
1
Step 450000
Ar 1.015637e+00 0.000000e+00 0.000000e+00
1
Step 451000
Ar 1.155631e+00 0.000000e+00 0.000000e+00
1
Step 452000
Ar 1.053843e+00 0.000000e+00 0.000000e+00
1
Step 453000
Ar 9.706557e-01 0.000000e+00 0.000000e+00
1
Step 454000
Ar 1.114171e+00 0.000000e+00 0.000000e+00
1
Step 455000
Ar 1.119344e+00 0.000000e+00 0.000000e+00
1
Step 456000
Ar 9.994731e-01 0.000000e+00 0.000000e+00
1
Step 457000
Ar 1.095918e+00 0.000000e+00 0.000000e+00
1
Step 458000
Ar 1.123638e+00 0.000000e+00 0.000000e+00
1
Step 459000
Ar 1.044894e+00 0.000000e+00 0.000000e+00
1
Step 460000
Ar 1.043571e+00 0.000000e+00 0.000000e+00
1
Step 461000
Ar 1.132311e+00 0.000000e+00 0.000000e+00
1
Step 462000
Ar 1.027088e+00 0.000000e+00 0.000000e+00
1
Step 463000
Ar 1.127140e+00 0.000000e+00 0.000000e+00
1
Step 464000
Ar 9.781808e-01 0.000000e+00 0.000000e+00
1
Step 465000
Ar 1.202599e+00 0.000000e+00 0.000000e+00
1
Step 466000
Ar 9.762018e-01 0.000000e+00 0.000000e+00
1
Step 467000
Ar 1.196483e+00 0.000000e+00 0.000000e+00
1
Step 468000
Ar 1.035077e+00 0.000000e+00 0.000000e+00
1
Step 469000
Ar 1.151651e+00 0.000000e+00 0.000000e+00
1
Step 470000
Ar 1.021928e+00 0.000000e+00 0.000000e+00
1
Step 471000
Ar 9.921888e-01 0.000000e+00 0.000000e+00
1
Step 472000
Ar 1.055927e+00 0.000000e+00 0.000000e+00
1
Step 473000
Ar 1.098808e+00 0.000000e+00 0.000000e+00
1
Step 474000
Ar 9.792459e-01 0.000000e+00 0.000000e+00
1
Step 475000
Ar 1.107870e+00 0.000000e+00 0.000000e+00
1
Step 476000
Ar 1.053507e+00 0.000000e+00 0.000000e+00
1
Step 477000
Ar 1.046743e+00 0.000000e+00 0.000000e+00
1
Step 478000
Ar 1.178738e+00 0.000000e+00 0.000000e+00
1
Step 479000
Ar 1.064510e+00 0.000000e+00 0.000000e+00
1
Step 480000
Ar 1.038525e+00 0.000000e+00 0.000000e+00
1
Step 481000
Ar 1.002403e+00 0.000000e+00 0.000000e+00
1
Step 482000
Ar 1.074116e+00 0.000000e+00 0.000000e+00
1
Step 483000
Ar 1.030809e+00 0.000000e+00 0.000000e+00
1
Step 484000
Ar 1.047818e+00 0.000000e+00 0.000000e+00
1
Step 485000
Ar 9.781237e-01 0.000000e+00 0.000000e+00
1
Step 486000
Ar 1.148691e+00 0.000000e+00 0.000000e+00
1
Step 487000
Ar 1.098511e+00 0.000000e+00 0.000000e+00
1
Step 488000
Ar 1.255054e+00 0.000000e+00 0.000000e+00
1
Step 489000
Ar 1.003394e+00 0.000000e+00 0.000000e+00
1
Step 490000
Ar 9.657455e-01 0.000000e+00 0.000000e+00
1
Step 491000
Ar 1.052193e+00 0.000000e+00 0.000000e+00
1
Step 492000
Ar 1.097363e+00 0.000000e+00 0.000000e+00
1
Step 493000
Ar 1.063508e+00 0.000000e+00 0.000000e+00
1
Step 494000
Ar 1.075843e+00 0.000000e+00 0.000000e+00
1
Step 495000
Ar 1.228275e+00 0.000000e+00 0.000000e+00
1
Step 496000
Ar 1.028777e+00 0.000000e+00 0.000000e+00
1
Step 497000
Ar 9.787519e-01 0.000000e+00 0.000000e+00
1
Step 498000
Ar 1.162465e+00 0.000000e+00 0.000000e+00
1
Step 499000
Ar 1.166762e+00 0.000000e+00 0.000000e+00
1
Step 500000
Ar 1.023761e+00 0.000000e+00 0.000000e+00
1
Step 501000
Ar 1.018656e+00 0.000000e+00 0.000000e+00
1
Step 502000
Ar 1.034359e+00 0.000000e+00 0.000000e+00
1
Step 503000
Ar 1.251735e+00 0.000000e+00 0.000000e+00
1
Step 504000
Ar 1.126498e+00 0.000000e+00 0.000000e+00
1
Step 505000
Ar 1.073103e+00 0.000000e+00 0.000000e+00
1
Step 506000
Ar 1.090540e+00 0.000000e+00 0.000000e+00
1
Step 507000
Ar 1.018937e+00 0.000000e+00 0.000000e+00
1
Step 508000
Ar 9.875157e-01 0.000000e+00 0.000000e+00
1
Step 509000
Ar 9.984836e-01 0.000000e+00 0.000000e+00
1
Step 510000
Ar 1.035688e+00 0.000000e+00 0.000000e+00
1
Step 511000
Ar 1.040905e+00 0.000000e+00 0.000000e+00
1
Step 512000
Ar 1.032566e+00 0.000000e+00 0.000000e+00
1
Step 513000
Ar 1.075789e+00 0.000000e+00 0.000000e+00
1
Step 514000
Ar 1.181038e+00 0.000000e+00 0.000000e+00
1
Step 515000
Ar 1.103833e+00 0.000000e+00 0.000000e+00
1
Step 516000
Ar 9.808780e-01 0.000000e+00 0.000000e+00
1
Step 517000
Ar 1.128559e+00 0.000000e+00 0.000000e+00
1
Step 518000
Ar 1.033729e+00 0.000000e+00 0.000000e+00
1
Step 519000
Ar 1.145048e+00 0.000000e+00 0.000000e+00
1
Step 520000
Ar 1.021440e+00 0.000000e+00 0.000000e+00
1
Step 521000
Ar 1.033314e+00 0.000000e+00 0.000000e+00
1
Step 522000
Ar 1.001209e+00 0.000000e+00 0.000000e+00
1
Step 523000
Ar 1.194103e+00 0.000000e+00 0.000000e+00
1
Step 524000
Ar 1.038837e+00 0.000000e+00 0.000000e+00
1
Step 525000
Ar 1.150866e+00 0.000000e+00 0.000000e+00
1
Step 526000
Ar 1.040284e+00 0.000000e+00 0.000000e+00
1
Step 527000
Ar 9.749657e-01 0.000000e+00 0.000000e+00
1
Step 528000
Ar 1.138438e+00 0.000000e+00 0.000000e+00
1
Step 529000
Ar 1.018284e+00 0.000000e+00 0.000000e+00
1
Step 530000
Ar 1.108100e+00 0.000000e+00 0.000000e+00
1
Step 531000
Ar 9.857775e-01 0.000000e+00 0.000000e+00
1
Step 532000
Ar 1.153305e+00 0.000000e+00 0.000000e+00
1
Step 533000
Ar 1.037429e+00 0.000000e+00 0.000000e+00
1
Step 534000
Ar 9.839038e-01 0.000000e+00 0.000000e+00
1
Step 535000
Ar 9.812301e-01 0.000000e+00 0.000000e+00
1
Step 536000
Ar 1.100708e+00 0.000000e+00 0.000000e+00
1
Step 537000
Ar 1.008096e+00 0.000000e+00 0.000000e+00
1
Step 538000
Ar 1.104464e+00 0.000000e+00 0.000000e+00
1
Step 539000
Ar 1.073658e+00 0.000000e+00 0.000000e+00
1
Step 540000
Ar 1.193232e+00 0.000000e+00 0.000000e+00
1
Step 541000
Ar 1.192047e+00 0.000000e+00 0.000000e+00
1
Step 542000
Ar 1.045230e+00 0.000000e+00 0.000000e+00
1
Step 543000
Ar 1.013321e+00 0.000000e+00 0.000000e+00
1
Step 544000
Ar 1.036539e+00 0.000000e+00 0.000000e+00
1
Step 545000
Ar 1.051055e+00 0.000000e+00 0.000000e+00
1
Step 546000
Ar 1.029189e+00 0.000000e+00 0.000000e+00
1
Step 547000
Ar 1.128174e+00 0.000000e+00 0.000000e+00
1
Step 548000
Ar 1.130119e+00 0.000000e+00 0.000000e+00
1
Step 549000
Ar 1.088137e+00 0.000000e+00 0.000000e+00
1
Step 550000
Ar 9.929164e-01 0.000000e+00 0.000000e+00
1
Step 551000
Ar 1.136468e+00 0.000000e+00 0.000000e+00
1
Step 552000
Ar 1.022231e+00 0.000000e+00 0.000000e+00
1
Step 553000
Ar 1.047039e+00 0.000000e+00 0.000000e+00
1
Step 554000
Ar 1.004663e+00 0.000000e+00 0.000000e+00
1
Step 555000
Ar 1.052147e+00 0.000000e+00 0.000000e+00
1
Step 556000
Ar 1.005735e+00 0.000000e+00 0.000000e+00
1
Step 557000
Ar 1.124458e+00 0.000000e+00 0.000000e+00
1
Step 558000
Ar 1.071541e+00 0.000000e+00 0.000000e+00
1
Step 559000
Ar 1.137083e+00 0.000000e+00 0.000000e+00
1
Step 560000
Ar 9.836909e-01 0.000000e+00 0.000000e+00
1
Step 561000
Ar 1.079312e+00 0.000000e+00 0.000000e+00
1
Step 562000
Ar 9.846826e-01 0.000000e+00 0.000000e+00
1
Step 563000
Ar 1.013166e+00 0.000000e+00 0.000000e+00
1
Step 564000
Ar 1.088371e+00 0.000000e+00 0.000000e+00
1
Step 565000
Ar 9.786400e-01 0.000000e+00 0.000000e+00
1
Step 566000
Ar 1.061840e+00 0.000000e+00 0.000000e+00
1
Step 567000
Ar 1.059170e+00 0.000000e+00 0.000000e+00
1
Step 568000
Ar 1.083056e+00 0.000000e+00 0.000000e+00
1
Step 569000
Ar 1.049510e+00 0.000000e+00 0.000000e+00
1
Step 570000
Ar 9.765860e-01 0.000000e+00 0.000000e+00
1
Step 571000
Ar 1.101600e+00 0.000000e+00 0.000000e+00
1
Step 572000
Ar 1.288919e+00 0.000000e+00 0.000000e+00
1
Step 573000
Ar 1.038050e+00 0.000000e+00 0.000000e+00
1
Step 574000
Ar 1.012540e+00 0.000000e+00 0.000000e+00
1
Step 575000
Ar 1.139845e+00 0.000000e+00 0.000000e+00
1
Step 576000
Ar 1.105881e+00 0.000000e+00 0.000000e+00
1
Step 577000
Ar 1.005511e+00 0.000000e+00 0.000000e+00
1
Step 578000
Ar 1.040550e+00 0.000000e+00 0.000000e+00
1
Step 579000
Ar 1.091376e+00 0.000000e+00 0.000000e+00
1
Step 580000
Ar 9.694422e-01 0.000000e+00 0.000000e+00
1
Step 581000
Ar 1.107681e+00 0.000000e+00 0.000000e+00
1
Step 582000
Ar 9.781453e-01 0.000000e+00 0.000000e+00
1
Step 583000
Ar 1.112345e+00 0.000000e+00 0.000000e+00
1
Step 584000
Ar 1.049588e+00 0.000000e+00 0.000000e+00
1
Step 585000
Ar 1.157931e+00 0.000000e+00 0.000000e+00
1
Step 586000
Ar 1.066289e+00 0.000000e+00 0.000000e+00
1
Step 587000
Ar 1.077083e+00 0.000000e+00 0.000000e+00
1
Step 588000
Ar 9.735246e-01 0.000000e+00 0.000000e+00
1
Step 589000
Ar 1.111571e+00 0.000000e+00 0.000000e+00
1
Step 590000
Ar 1.086139e+00 0.000000e+00 0.000000e+00
1
Step 591000
Ar 1.005644e+00 0.000000e+00 0.000000e+00
1
Step 592000
Ar 9.798101e-01 0.000000e+00 0.000000e+00
1
Step 593000
Ar 1.106692e+00 0.000000e+00 0.000000e+00
1
Step 594000
Ar 1.040385e+00 0.000000e+00 0.000000e+00
1
Step 595000
Ar 9.736610e-01 0.000000e+00 0.000000e+00
1
Step 596000
Ar 1.047427e+00 0.000000e+00 0.000000e+00
1
Step 597000
Ar 1.015924e+00 0.000000e+00 0.000000e+00
1
Step 598000
Ar 1.098219e+00 0.000000e+00 0.000000e+00
1
Step 599000
Ar 1.149179e+00 0.000000e+00 0.000000e+00
1
Step 600000
Ar 1.013524e+00 0.000000e+00 0.000000e+00
1
Step 601000
Ar 1.096028e+00 0.000000e+00 0.000000e+00
1
Step 602000
Ar 9.926586e-01 0.000000e+00 0.000000e+00
1
Step 603000
Ar 1.218857e+00 0.000000e+00 0.000000e+00
1
Step 604000
Ar 1.023236e+00 0.000000e+00 0.000000e+00
1
Step 605000
Ar 1.026326e+00 0.000000e+00 0.000000e+00
1
Step 606000
Ar 1.009931e+00 0.000000e+00 0.000000e+00
1
Step 607000
Ar 1.069767e+00 0.000000e+00 0.000000e+00
1
Step 608000
Ar 1.065639e+00 0.000000e+00 0.000000e+00
1
Step 609000
Ar 1.027814e+00 0.000000e+00 0.000000e+00
1
Step 610000
Ar 1.038023e+00 0.000000e+00 0.000000e+00
1
Step 611000
Ar 9.898594e-01 0.000000e+00 0.000000e+00
1
Step 612000
Ar 1.119697e+00 0.000000e+00 0.000000e+00
1
Step 613000
Ar 1.047705e+00 0.000000e+00 0.000000e+00
1
Step 614000
Ar 1.042238e+00 0.000000e+00 0.000000e+00
1
Step 615000
Ar 1.167450e+00 0.000000e+00 0.000000e+00
1
Step 616000
Ar 1.063091e+00 0.000000e+00 0.000000e+00
1
Step 617000
Ar 1.089429e+00 0.000000e+00 0.000000e+00
1
Step 618000
Ar 1.034901e+00 0.000000e+00 0.000000e+00
1
Step 619000
Ar 1.070604e+00 0.000000e+00 0.000000e+00
1
Step 620000
Ar 1.035187e+00 0.000000e+00 0.000000e+00
1
Step 621000
Ar 1.078077e+00 0.000000e+00 0.000000e+00
1
Step 622000
Ar 1.002623e+00 0.000000e+00 0.000000e+00
1
Step 623000
Ar 1.112809e+00 0.000000e+00 0.000000e+00
1
Step 624000
Ar 9.685904e-01 0.000000e+00 0.000000e+00
1
Step 625000
Ar 1.021321e+00 0.000000e+00 0.000000e+00
1
Step 626000
Ar 1.194352e+00 0.000000e+00 0.000000e+00
1
Step 627000
Ar 1.013082e+00 0.000000e+00 0.000000e+00
1
Step 628000
Ar 9.700961e-01 0.000000e+00 0.000000e+00
1
Step 629000
Ar 1.088124e+00 0.000000e+00 0.000000e+00
1
Step 630000
Ar 1.000531e+00 0.000000e+00 0.000000e+00
1
Step 631000
Ar 1.233348e+00 0.000000e+00 0.000000e+00
1
Step 632000
Ar 1.160237e+00 0.000000e+00 0.000000e+00
1
Step 633000
Ar 1.113544e+00 0.000000e+00 0.000000e+00
1
Step 634000
Ar 1.149604e+00 0.000000e+00 0.000000e+00
1
Step 635000
Ar 1.144800e+00 0.000000e+00 0.000000e+00
1
Step 636000
Ar 1.050189e+00 0.000000e+00 0.000000e+00
1
Step 637000
Ar 9.820858e-01 0.000000e+00 0.000000e+00
1
Step 638000
Ar 9.902113e-01 0.000000e+00 0.000000e+00
1
Step 639000
Ar 9.653502e-01 0.000000e+00 0.000000e+00
1
Step 640000
Ar 1.051157e+00 0.000000e+00 0.000000e+00
1
Step 641000
Ar 1.062617e+00 0.000000e+00 0.000000e+00
1
Step 642000
Ar 1.138813e+00 0.000000e+00 0.000000e+00
1
Step 643000
Ar 1.012368e+00 0.000000e+00 0.000000e+00
1
Step 644000
Ar 1.024235e+00 0.000000e+00 0.000000e+00
1
Step 645000
Ar 1.023551e+00 0.000000e+00 0.000000e+00
1
Step 646000
Ar 1.019243e+00 0.000000e+00 0.000000e+00
1
Step 647000
Ar 1.114698e+00 0.000000e+00 0.000000e+00
1
Step 648000
Ar 9.968647e-01 0.000000e+00 0.000000e+00
1
Step 649000
Ar 9.961422e-01 0.000000e+00 0.000000e+00
1
Step 650000
Ar 9.937103e-01 0.000000e+00 0.000000e+00
1
Step 651000
Ar 1.017531e+00 0.000000e+00 0.000000e+00
1
Step 652000
Ar 1.176287e+00 0.000000e+00 0.000000e+00
1
Step 653000
Ar 1.131920e+00 0.000000e+00 0.000000e+00
1
Step 654000
Ar 9.936833e-01 0.000000e+00 0.000000e+00
1
Step 655000
Ar 1.068159e+00 0.000000e+00 0.000000e+00
1
Step 656000
Ar 1.041011e+00 0.000000e+00 0.000000e+00
1
Step 657000
Ar 1.010179e+00 0.000000e+00 0.000000e+00
1
Step 658000
Ar 9.850708e-01 0.000000e+00 0.000000e+00
1
Step 659000
Ar 9.659990e-01 0.000000e+00 0.000000e+00
1
Step 660000
Ar 9.776633e-01 0.000000e+00 0.000000e+00
1
Step 661000
Ar 1.052452e+00 0.000000e+00 0.000000e+00
1
Step 662000
Ar 1.073801e+00 0.000000e+00 0.000000e+00
1
Step 663000
Ar 1.158016e+00 0.000000e+00 0.000000e+00
1
Step 664000
Ar 1.036214e+00 0.000000e+00 0.000000e+00
1
Step 665000
Ar 1.061191e+00 0.000000e+00 0.000000e+00
1
Step 666000
Ar 1.186807e+00 0.000000e+00 0.000000e+00
1
Step 667000
Ar 9.907347e-01 0.000000e+00 0.000000e+00
1
Step 668000
Ar 1.082926e+00 0.000000e+00 0.000000e+00
1
Step 669000
Ar 1.015568e+00 0.000000e+00 0.000000e+00
1
Step 670000
Ar 1.101559e+00 0.000000e+00 0.000000e+00
1
Step 671000
Ar 1.192669e+00 0.000000e+00 0.000000e+00
1
Step 672000
Ar 1.068252e+00 0.000000e+00 0.000000e+00
1
Step 673000
Ar 9.829973e-01 0.000000e+00 0.000000e+00
1
Step 674000
Ar 1.110949e+00 0.000000e+00 0.000000e+00
1
Step 675000
Ar 1.094663e+00 0.000000e+00 0.000000e+00
1
Step 676000
Ar 1.146671e+00 0.000000e+00 0.000000e+00
1
Step 677000
Ar 1.047784e+00 0.000000e+00 0.000000e+00
1
Step 678000
Ar 9.858637e-01 0.000000e+00 0.000000e+00
1
Step 679000
Ar 9.686916e-01 0.000000e+00 0.000000e+00
1
Step 680000
Ar 1.120960e+00 0.000000e+00 0.000000e+00
1
Step 681000
Ar 1.117516e+00 0.000000e+00 0.000000e+00
1
Step 682000
Ar 1.026298e+00 0.000000e+00 0.000000e+00
1
Step 683000
Ar 1.086550e+00 0.000000e+00 0.000000e+00
1
Step 684000
Ar 1.121505e+00 0.000000e+00 0.000000e+00
1
Step 685000
Ar 1.100368e+00 0.000000e+00 0.000000e+00
1
Step 686000
Ar 9.706905e-01 0.000000e+00 0.000000e+00
1
Step 687000
Ar 9.798777e-01 0.000000e+00 0.000000e+00
1
Step 688000
Ar 1.060927e+00 0.000000e+00 0.000000e+00
1
Step 689000
Ar 1.189142e+00 0.000000e+00 0.000000e+00
1
Step 690000
Ar 9.717635e-01 0.000000e+00 0.000000e+00
1
Step 691000
Ar 1.063120e+00 0.000000e+00 0.000000e+00
1
Step 692000
Ar 1.019974e+00 0.000000e+00 0.000000e+00
1
Step 693000
Ar 1.081334e+00 0.000000e+00 0.000000e+00
1
Step 694000
Ar 1.174380e+00 0.000000e+00 0.000000e+00
1
Step 695000
Ar 1.048774e+00 0.000000e+00 0.000000e+00
1
Step 696000
Ar 9.941159e-01 0.000000e+00 0.000000e+00
1
Step 697000
Ar 1.064785e+00 0.000000e+00 0.000000e+00
1
Step 698000
Ar 1.049761e+00 0.000000e+00 0.000000e+00
1
Step 699000
Ar 1.073340e+00 0.000000e+00 0.000000e+00
1
Step 700000
Ar 1.082530e+00 0.000000e+00 0.000000e+00
1
Step 701000
Ar 1.138003e+00 0.000000e+00 0.000000e+00
1
Step 702000
Ar 1.001216e+00 0.000000e+00 0.000000e+00
1
Step 703000
Ar 1.063076e+00 0.000000e+00 0.000000e+00
1
Step 704000
Ar 1.102155e+00 0.000000e+00 0.000000e+00
1
Step 705000
Ar 1.062071e+00 0.000000e+00 0.000000e+00
1
Step 706000
Ar 1.087280e+00 0.000000e+00 0.000000e+00
1
Step 707000
Ar 9.628485e-01 0.000000e+00 0.000000e+00
1
Step 708000
Ar 1.009589e+00 0.000000e+00 0.000000e+00
1
Step 709000
Ar 1.032904e+00 0.000000e+00 0.000000e+00
1
Step 710000
Ar 1.026217e+00 0.000000e+00 0.000000e+00
1
Step 711000
Ar 1.120409e+00 0.000000e+00 0.000000e+00
1
Step 712000
Ar 1.148242e+00 0.000000e+00 0.000000e+00
1
Step 713000
Ar 1.096908e+00 0.000000e+00 0.000000e+00
1
Step 714000
Ar 1.178810e+00 0.000000e+00 0.000000e+00
1
Step 715000
Ar 1.051965e+00 0.000000e+00 0.000000e+00
1
Step 716000
Ar 1.204376e+00 0.000000e+00 0.000000e+00
1
Step 717000
Ar 9.679650e-01 0.000000e+00 0.000000e+00
1
Step 718000
Ar 1.110363e+00 0.000000e+00 0.000000e+00
1
Step 719000
Ar 1.037516e+00 0.000000e+00 0.000000e+00
1
Step 720000
Ar 1.086717e+00 0.000000e+00 0.000000e+00
1
Step 721000
Ar 1.046933e+00 0.000000e+00 0.000000e+00
1
Step 722000
Ar 1.095099e+00 0.000000e+00 0.000000e+00
1
Step 723000
Ar 1.023704e+00 0.000000e+00 0.000000e+00
1
Step 724000
Ar 1.107496e+00 0.000000e+00 0.000000e+00
1
Step 725000
Ar 9.768705e-01 0.000000e+00 0.000000e+00
1
Step 726000
Ar 1.048012e+00 0.000000e+00 0.000000e+00
1
Step 727000
Ar 1.033951e+00 0.000000e+00 0.000000e+00
1
Step 728000
Ar 1.084226e+00 0.000000e+00 0.000000e+00
1
Step 729000
Ar 1.035223e+00 0.000000e+00 0.000000e+00
1
Step 730000
Ar 1.059360e+00 0.000000e+00 0.000000e+00
1
Step 731000
Ar 1.025028e+00 0.000000e+00 0.000000e+00
1
Step 732000
Ar 1.134515e+00 0.000000e+00 0.000000e+00
1
Step 733000
Ar 1.013658e+00 0.000000e+00 0.000000e+00
1
Step 734000
Ar 1.167119e+00 0.000000e+00 0.000000e+00
1
Step 735000
Ar 1.108424e+00 0.000000e+00 0.000000e+00
1
Step 736000
Ar 9.843400e-01 0.000000e+00 0.000000e+00
1
Step 737000
Ar 9.995387e-01 0.000000e+00 0.000000e+00
1
Step 738000
Ar 1.013063e+00 0.000000e+00 0.000000e+00
1
Step 739000
Ar 1.050538e+00 0.000000e+00 0.000000e+00
1
Step 740000
Ar 9.667266e-01 0.000000e+00 0.000000e+00
1
Step 741000
Ar 9.786063e-01 0.000000e+00 0.000000e+00
1
Step 742000
Ar 1.126451e+00 0.000000e+00 0.000000e+00
1
Step 743000
Ar 1.199643e+00 0.000000e+00 0.000000e+00
1
Step 744000
Ar 1.009827e+00 0.000000e+00 0.000000e+00
1
Step 745000
Ar 9.960469e-01 0.000000e+00 0.000000e+00
1
Step 746000
Ar 1.044254e+00 0.000000e+00 0.000000e+00
1
Step 747000
Ar 9.994956e-01 0.000000e+00 0.000000e+00
1
Step 748000
Ar 1.069454e+00 0.000000e+00 0.000000e+00
1
Step 749000
Ar 1.224478e+00 0.000000e+00 0.000000e+00
1
Step 750000
Ar 1.130907e+00 0.000000e+00 0.000000e+00
1
Step 751000
Ar 1.087737e+00 0.000000e+00 0.000000e+00
1
Step 752000
Ar 1.078813e+00 0.000000e+00 0.000000e+00
1
Step 753000
Ar 1.081004e+00 0.000000e+00 0.000000e+00
1
Step 754000
Ar 1.119481e+00 0.000000e+00 0.000000e+00
1
Step 755000
Ar 1.034601e+00 0.000000e+00 0.000000e+00
1
Step 756000
Ar 1.063821e+00 0.000000e+00 0.000000e+00
1
Step 757000
Ar 1.104889e+00 0.000000e+00 0.000000e+00
1
Step 758000
Ar 9.994212e-01 0.000000e+00 0.000000e+00
1
Step 759000
Ar 9.807692e-01 0.000000e+00 0.000000e+00
1
Step 760000
Ar 1.019416e+00 0.000000e+00 0.000000e+00
1
Step 761000
Ar 9.783711e-01 0.000000e+00 0.000000e+00
1
Step 762000
Ar 1.091372e+00 0.000000e+00 0.000000e+00
1
Step 763000
Ar 1.135669e+00 0.000000e+00 0.000000e+00
1
Step 764000
Ar 1.134604e+00 0.000000e+00 0.000000e+00
1
Step 765000
Ar 1.132434e+00 0.000000e+00 0.000000e+00
1
Step 766000
Ar 1.002185e+00 0.000000e+00 0.000000e+00
1
Step 767000
Ar 9.796160e-01 0.000000e+00 0.000000e+00
1
Step 768000
Ar 1.149426e+00 0.000000e+00 0.000000e+00
1
Step 769000
Ar 1.075201e+00 0.000000e+00 0.000000e+00
1
Step 770000
Ar 1.232451e+00 0.000000e+00 0.000000e+00
1
Step 771000
Ar 1.036133e+00 0.000000e+00 0.000000e+00
1
Step 772000
Ar 1.042809e+00 0.000000e+00 0.000000e+00
1
Step 773000
Ar 1.091136e+00 0.000000e+00 0.000000e+00
1
Step 774000
Ar 9.973067e-01 0.000000e+00 0.000000e+00
1
Step 775000
Ar 1.004420e+00 0.000000e+00 0.000000e+00
1
Step 776000
Ar 1.080221e+00 0.000000e+00 0.000000e+00
1
Step 777000
Ar 1.007172e+00 0.000000e+00 0.000000e+00
1
Step 778000
Ar 1.055288e+00 0.000000e+00 0.000000e+00
1
Step 779000
Ar 9.862591e-01 0.000000e+00 0.000000e+00
1
Step 780000
Ar 1.134855e+00 0.000000e+00 0.000000e+00
1
Step 781000
Ar 1.067662e+00 0.000000e+00 0.000000e+00
1
Step 782000
Ar 1.167520e+00 0.000000e+00 0.000000e+00
1
Step 783000
Ar 9.767964e-01 0.000000e+00 0.000000e+00
1
Step 784000
Ar 1.001483e+00 0.000000e+00 0.000000e+00
1
Step 785000
Ar 1.095152e+00 0.000000e+00 0.000000e+00
1
Step 786000
Ar 9.980395e-01 0.000000e+00 0.000000e+00
1
Step 787000
Ar 1.088331e+00 0.000000e+00 0.000000e+00
1
Step 788000
Ar 1.137038e+00 0.000000e+00 0.000000e+00
1
Step 789000
Ar 9.993751e-01 0.000000e+00 0.000000e+00
1
Step 790000
Ar 1.034384e+00 0.000000e+00 0.000000e+00
1
Step 791000
Ar 1.033498e+00 0.000000e+00 0.000000e+00
1
Step 792000
Ar 1.121704e+00 0.000000e+00 0.000000e+00
1
Step 793000
Ar 9.766160e-01 0.000000e+00 0.000000e+00
1
Step 794000
Ar 1.084078e+00 0.000000e+00 0.000000e+00
1
Step 795000
Ar 1.090184e+00 0.000000e+00 0.000000e+00
1
Step 796000
Ar 9.992267e-01 0.000000e+00 0.000000e+00
1
Step 797000
Ar 1.194600e+00 0.000000e+00 0.000000e+00
1
Step 798000
Ar 9.818186e-01 0.000000e+00 0.000000e+00
1
Step 799000
Ar 9.856173e-01 0.000000e+00 0.000000e+00
1
Step 800000
Ar 9.875760e-01 0.000000e+00 0.000000e+00
1
Step 801000
Ar 1.169831e+00 0.000000e+00 0.000000e+00
1
Step 802000
Ar 1.169191e+00 0.000000e+00 0.000000e+00
1
Step 803000
Ar 1.108768e+00 0.000000e+00 0.000000e+00
1
Step 804000
Ar 9.985274e-01 0.000000e+00 0.000000e+00
1
Step 805000
Ar 9.801478e-01 0.000000e+00 0.000000e+00
1
Step 806000
Ar 1.217289e+00 0.000000e+00 0.000000e+00
1
Step 807000
Ar 1.059315e+00 0.000000e+00 0.000000e+00
1
Step 808000
Ar 9.765494e-01 0.000000e+00 0.000000e+00
1
Step 809000
Ar 1.174094e+00 0.000000e+00 0.000000e+00
1
Step 810000
Ar 1.216491e+00 0.000000e+00 0.000000e+00
1
Step 811000
Ar 1.050966e+00 0.000000e+00 0.000000e+00
1
Step 812000
Ar 1.011953e+00 0.000000e+00 0.000000e+00
1
Step 813000
Ar 1.148569e+00 0.000000e+00 0.000000e+00
1
Step 814000
Ar 1.045370e+00 0.000000e+00 0.000000e+00
1
Step 815000
Ar 1.002437e+00 0.000000e+00 0.000000e+00
1
Step 816000
Ar 9.983526e-01 0.000000e+00 0.000000e+00
1
Step 817000
Ar 1.034373e+00 0.000000e+00 0.000000e+00
1
Step 818000
Ar 1.002003e+00 0.000000e+00 0.000000e+00
1
Step 819000
Ar 1.039296e+00 0.000000e+00 0.000000e+00
1
Step 820000
Ar 1.083438e+00 0.000000e+00 0.000000e+00
1
Step 821000
Ar 1.094216e+00 0.000000e+00 0.000000e+00
1
Step 822000
Ar 1.002471e+00 0.000000e+00 0.000000e+00
1
Step 823000
Ar 1.019457e+00 0.000000e+00 0.000000e+00
1
Step 824000
Ar 1.001336e+00 0.000000e+00 0.000000e+00
1
Step 825000
Ar 1.146765e+00 0.000000e+00 0.000000e+00
1
Step 826000
Ar 1.030057e+00 0.000000e+00 0.000000e+00
1
Step 827000
Ar 1.043298e+00 0.000000e+00 0.000000e+00
1
Step 828000
Ar 9.784561e-01 0.000000e+00 0.000000e+00
1
Step 829000
Ar 1.093484e+00 0.000000e+00 0.000000e+00
1
Step 830000
Ar 1.093000e+00 0.000000e+00 0.000000e+00
1
Step 831000
Ar 1.128444e+00 0.000000e+00 0.000000e+00
1
Step 832000
Ar 1.046435e+00 0.000000e+00 0.000000e+00
1
Step 833000
Ar 1.095970e+00 0.000000e+00 0.000000e+00
1
Step 834000
Ar 9.701477e-01 0.000000e+00 0.000000e+00
1
Step 835000
Ar 9.840182e-01 0.000000e+00 0.000000e+00
1
Step 836000
Ar 1.132950e+00 0.000000e+00 0.000000e+00
1
Step 837000
Ar 1.078158e+00 0.000000e+00 0.000000e+00
1
Step 838000
Ar 1.045623e+00 0.000000e+00 0.000000e+00
1
Step 839000
Ar 1.052387e+00 0.000000e+00 0.000000e+00
1
Step 840000
Ar 9.936418e-01 0.000000e+00 0.000000e+00
1
Step 841000
Ar 9.653375e-01 0.000000e+00 0.000000e+00
1
Step 842000
Ar 1.115937e+00 0.000000e+00 0.000000e+00
1
Step 843000
Ar 1.024929e+00 0.000000e+00 0.000000e+00
1
Step 844000
Ar 1.183915e+00 0.000000e+00 0.000000e+00
1
Step 845000
Ar 1.096286e+00 0.000000e+00 0.000000e+00
1
Step 846000
Ar 1.031199e+00 0.000000e+00 0.000000e+00
1
Step 847000
Ar 1.115078e+00 0.000000e+00 0.000000e+00
1
Step 848000
Ar 1.025561e+00 0.000000e+00 0.000000e+00
1
Step 849000
Ar 1.001362e+00 0.000000e+00 0.000000e+00
1
Step 850000
Ar 1.121634e+00 0.000000e+00 0.000000e+00
1
Step 851000
Ar 1.002793e+00 0.000000e+00 0.000000e+00
1
Step 852000
Ar 1.192275e+00 0.000000e+00 0.000000e+00
1
Step 853000
Ar 1.096632e+00 0.000000e+00 0.000000e+00
1
Step 854000
Ar 1.047590e+00 0.000000e+00 0.000000e+00
1
Step 855000
Ar 1.029430e+00 0.000000e+00 0.000000e+00
1
Step 856000
Ar 1.107441e+00 0.000000e+00 0.000000e+00
1
Step 857000
Ar 1.138326e+00 0.000000e+00 0.000000e+00
1
Step 858000
Ar 1.195109e+00 0.000000e+00 0.000000e+00
1
Step 859000
Ar 1.082549e+00 0.000000e+00 0.000000e+00
1
Step 860000
Ar 1.059952e+00 0.000000e+00 0.000000e+00
1
Step 861000
Ar 1.102659e+00 0.000000e+00 0.000000e+00
1
Step 862000
Ar 1.030149e+00 0.000000e+00 0.000000e+00
1
Step 863000
Ar 1.147819e+00 0.000000e+00 0.000000e+00
1
Step 864000
Ar 1.123466e+00 0.000000e+00 0.000000e+00
1
Step 865000
Ar 1.041968e+00 0.000000e+00 0.000000e+00
1
Step 866000
Ar 1.223487e+00 0.000000e+00 0.000000e+00
1
Step 867000
Ar 1.017945e+00 0.000000e+00 0.000000e+00
1
Step 868000
Ar 1.037040e+00 0.000000e+00 0.000000e+00
1
Step 869000
Ar 1.030107e+00 0.000000e+00 0.000000e+00
1
Step 870000
Ar 1.144599e+00 0.000000e+00 0.000000e+00
1
Step 871000
Ar 1.086058e+00 0.000000e+00 0.000000e+00
1
Step 872000
Ar 1.047591e+00 0.000000e+00 0.000000e+00
1
Step 873000
Ar 1.108503e+00 0.000000e+00 0.000000e+00
1
Step 874000
Ar 1.117278e+00 0.000000e+00 0.000000e+00
1
Step 875000
Ar 1.111363e+00 0.000000e+00 0.000000e+00
1
Step 876000
Ar 1.005841e+00 0.000000e+00 0.000000e+00
1
Step 877000
Ar 1.019477e+00 0.000000e+00 0.000000e+00
1
Step 878000
Ar 9.750803e-01 0.000000e+00 0.000000e+00
1
Step 879000
Ar 1.058774e+00 0.000000e+00 0.000000e+00
1
Step 880000
Ar 1.112203e+00 0.000000e+00 0.000000e+00
1
Step 881000
Ar 1.090701e+00 0.000000e+00 0.000000e+00
1
Step 882000
Ar 9.878372e-01 0.000000e+00 0.000000e+00
1
Step 883000
Ar 1.011519e+00 0.000000e+00 0.000000e+00
1
Step 884000
Ar 1.052347e+00 0.000000e+00 0.000000e+00
1
Step 885000
Ar 9.793145e-01 0.000000e+00 0.000000e+00
1
Step 886000
Ar 9.649965e-01 0.000000e+00 0.000000e+00
1
Step 887000
Ar 9.870592e-01 0.000000e+00 0.000000e+00
1
Step 888000
Ar 1.065486e+00 0.000000e+00 0.000000e+00
1
Step 889000
Ar 9.970849e-01 0.000000e+00 0.000000e+00
1
Step 890000
Ar 9.711336e-01 0.000000e+00 0.000000e+00
1
Step 891000
Ar 9.795849e-01 0.000000e+00 0.000000e+00
1
Step 892000
Ar 1.155225e+00 0.000000e+00 0.000000e+00
1
Step 893000
Ar 1.041047e+00 0.000000e+00 0.000000e+00
1
Step 894000
Ar 1.017665e+00 0.000000e+00 0.000000e+00
1
Step 895000
Ar 1.110504e+00 0.000000e+00 0.000000e+00
1
Step 896000
Ar 1.103327e+00 0.000000e+00 0.000000e+00
1
Step 897000
Ar 1.074824e+00 0.000000e+00 0.000000e+00
1
Step 898000
Ar 1.039878e+00 0.000000e+00 0.000000e+00
1
Step 899000
Ar 9.861973e-01 0.000000e+00 0.000000e+00
1
Step 900000
Ar 1.032377e+00 0.000000e+00 0.000000e+00
1
Step 901000
Ar 1.004386e+00 0.000000e+00 0.000000e+00
1
Step 902000
Ar 1.007182e+00 0.000000e+00 0.000000e+00
1
Step 903000
Ar 1.045421e+00 0.000000e+00 0.000000e+00
1
Step 904000
Ar 1.008804e+00 0.000000e+00 0.000000e+00
1
Step 905000
Ar 1.186072e+00 0.000000e+00 0.000000e+00
1
Step 906000
Ar 9.996767e-01 0.000000e+00 0.000000e+00
1
Step 907000
Ar 9.816986e-01 0.000000e+00 0.000000e+00
1
Step 908000
Ar 1.097719e+00 0.000000e+00 0.000000e+00
1
Step 909000
Ar 1.140706e+00 0.000000e+00 0.000000e+00
1
Step 910000
Ar 9.999731e-01 0.000000e+00 0.000000e+00
1
Step 911000
Ar 1.025350e+00 0.000000e+00 0.000000e+00
1
Step 912000
Ar 9.671879e-01 0.000000e+00 0.000000e+00
1
Step 913000
Ar 1.196079e+00 0.000000e+00 0.000000e+00
1
Step 914000
Ar 1.063384e+00 0.000000e+00 0.000000e+00
1
Step 915000
Ar 1.145854e+00 0.000000e+00 0.000000e+00
1
Step 916000
Ar 1.033241e+00 0.000000e+00 0.000000e+00
1
Step 917000
Ar 1.043177e+00 0.000000e+00 0.000000e+00
1
Step 918000
Ar 1.023643e+00 0.000000e+00 0.000000e+00
1
Step 919000
Ar 1.055827e+00 0.000000e+00 0.000000e+00
1
Step 920000
Ar 1.033658e+00 0.000000e+00 0.000000e+00
1
Step 921000
Ar 1.079044e+00 0.000000e+00 0.000000e+00
1
Step 922000
Ar 9.799789e-01 0.000000e+00 0.000000e+00
1
Step 923000
Ar 1.000724e+00 0.000000e+00 0.000000e+00
1
Step 924000
Ar 1.106364e+00 0.000000e+00 0.000000e+00
1
Step 925000
Ar 1.180394e+00 0.000000e+00 0.000000e+00
1
Step 926000
Ar 1.057074e+00 0.000000e+00 0.000000e+00
1
Step 927000
Ar 1.076114e+00 0.000000e+00 0.000000e+00
1
Step 928000
Ar 1.148346e+00 0.000000e+00 0.000000e+00
1
Step 929000
Ar 1.065320e+00 0.000000e+00 0.000000e+00
1
Step 930000
Ar 1.043347e+00 0.000000e+00 0.000000e+00
1
Step 931000
Ar 1.066203e+00 0.000000e+00 0.000000e+00
1
Step 932000
Ar 1.078304e+00 0.000000e+00 0.000000e+00
1
Step 933000
Ar 1.158828e+00 0.000000e+00 0.000000e+00
1
Step 934000
Ar 1.098747e+00 0.000000e+00 0.000000e+00
1
Step 935000
Ar 1.168423e+00 0.000000e+00 0.000000e+00
1
Step 936000
Ar 1.060958e+00 0.000000e+00 0.000000e+00
1
Step 937000
Ar 1.056937e+00 0.000000e+00 0.000000e+00
1
Step 938000
Ar 1.049676e+00 0.000000e+00 0.000000e+00
1
Step 939000
Ar 1.000060e+00 0.000000e+00 0.000000e+00
1
Step 940000
Ar 1.083583e+00 0.000000e+00 0.000000e+00
1
Step 941000
Ar 9.662708e-01 0.000000e+00 0.000000e+00
1
Step 942000
Ar 9.875043e-01 0.000000e+00 0.000000e+00
1
Step 943000
Ar 9.904575e-01 0.000000e+00 0.000000e+00
1
Step 944000
Ar 1.052483e+00 0.000000e+00 0.000000e+00
1
Step 945000
Ar 1.037902e+00 0.000000e+00 0.000000e+00
1
Step 946000
Ar 1.026957e+00 0.000000e+00 0.000000e+00
1
Step 947000
Ar 9.910435e-01 0.000000e+00 0.000000e+00
1
Step 948000
Ar 1.077296e+00 0.000000e+00 0.000000e+00
1
Step 949000
Ar 1.031256e+00 0.000000e+00 0.000000e+00
1
Step 950000
Ar 9.909659e-01 0.000000e+00 0.000000e+00
1
Step 951000
Ar 1.206475e+00 0.000000e+00 0.000000e+00
1
Step 952000
Ar 1.096525e+00 0.000000e+00 0.000000e+00
1
Step 953000
Ar 9.738176e-01 0.000000e+00 0.000000e+00
1
Step 954000
Ar 9.912947e-01 0.000000e+00 0.000000e+00
1
Step 955000
Ar 1.093706e+00 0.000000e+00 0.000000e+00
1
Step 956000
Ar 1.017357e+00 0.000000e+00 0.000000e+00
1
Step 957000
Ar 1.108971e+00 0.000000e+00 0.000000e+00
1
Step 958000
Ar 1.010110e+00 0.000000e+00 0.000000e+00
1
Step 959000
Ar 1.074794e+00 0.000000e+00 0.000000e+00
1
Step 960000
Ar 1.023634e+00 0.000000e+00 0.000000e+00
1
Step 961000
Ar 9.984203e-01 0.000000e+00 0.000000e+00
1
Step 962000
Ar 9.830134e-01 0.000000e+00 0.000000e+00
1
Step 963000
Ar 9.760663e-01 0.000000e+00 0.000000e+00
1
Step 964000
Ar 1.048247e+00 0.000000e+00 0.000000e+00
1
Step 965000
Ar 1.024591e+00 0.000000e+00 0.000000e+00
1
Step 966000
Ar 1.206193e+00 0.000000e+00 0.000000e+00
1
Step 967000
Ar 1.117915e+00 0.000000e+00 0.000000e+00
1
Step 968000
Ar 9.777832e-01 0.000000e+00 0.000000e+00
1
Step 969000
Ar 1.178761e+00 0.000000e+00 0.000000e+00
1
Step 970000
Ar 9.830350e-01 0.000000e+00 0.000000e+00
1
Step 971000
Ar 1.126395e+00 0.000000e+00 0.000000e+00
1
Step 972000
Ar 1.152965e+00 0.000000e+00 0.000000e+00
1
Step 973000
Ar 1.231144e+00 0.000000e+00 0.000000e+00
1
Step 974000
Ar 1.084541e+00 0.000000e+00 0.000000e+00
1
Step 975000
Ar 1.038492e+00 0.000000e+00 0.000000e+00
1
Step 976000
Ar 1.191675e+00 0.000000e+00 0.000000e+00
1
Step 977000
Ar 9.692389e-01 0.000000e+00 0.000000e+00
1
Step 978000
Ar 1.087191e+00 0.000000e+00 0.000000e+00
1
Step 979000
Ar 1.091400e+00 0.000000e+00 0.000000e+00
1
Step 980000
Ar 1.022954e+00 0.000000e+00 0.000000e+00
1
Step 981000
Ar 1.013983e+00 0.000000e+00 0.000000e+00
1
Step 982000
Ar 1.020970e+00 0.000000e+00 0.000000e+00
1
Step 983000
Ar 1.121615e+00 0.000000e+00 0.000000e+00
1
Step 984000
Ar 1.148699e+00 0.000000e+00 0.000000e+00
1
Step 985000
Ar 1.007255e+00 0.000000e+00 0.000000e+00
1
Step 986000
Ar 1.163321e+00 0.000000e+00 0.000000e+00
1
Step 987000
Ar 1.168446e+00 0.000000e+00 0.000000e+00
1
Step 988000
Ar 1.095606e+00 0.000000e+00 0.000000e+00
1
Step 989000
Ar 1.156105e+00 0.000000e+00 0.000000e+00
1
Step 990000
Ar 1.196197e+00 0.000000e+00 0.000000e+00
1
Step 991000
Ar 1.080882e+00 0.000000e+00 0.000000e+00
1
Step 992000
Ar 9.793521e-01 0.000000e+00 0.000000e+00
1
Step 993000
Ar 1.009063e+00 0.000000e+00 0.000000e+00
1
Step 994000
Ar 1.195876e+00 0.000000e+00 0.000000e+00
1
Step 995000
Ar 1.087772e+00 0.000000e+00 0.000000e+00
1
Step 996000
Ar 9.890729e-01 0.000000e+00 0.000000e+00
1
Step 997000
Ar 1.181908e+00 0.000000e+00 0.000000e+00
1
Step 998000
Ar 1.094436e+00 0.000000e+00 0.000000e+00
1
Step 999000
Ar 1.135038e+00 0.000000e+00 0.000000e+00
