1
Step 120000
Ar 9.034104e-01 0.000000e+00 0.000000e+00
1
Step 121000
Ar 1.041300e+00 0.000000e+00 0.000000e+00
1
Step 122000
Ar 8.830352e-01 0.000000e+00 0.000000e+00
1
Step 123000
Ar 8.020621e-01 0.000000e+00 0.000000e+00
1
Step 124000
Ar 9.136221e-01 0.000000e+00 0.000000e+00
1
Step 125000
Ar 1.076723e+00 0.000000e+00 0.000000e+00
1
Step 126000
Ar 9.402957e-01 0.000000e+00 0.000000e+00
1
Step 127000
Ar 9.440526e-01 0.000000e+00 0.000000e+00
1
Step 128000
Ar 9.439680e-01 0.000000e+00 0.000000e+00
1
Step 129000
Ar 1.164399e+00 0.000000e+00 0.000000e+00
1
Step 130000
Ar 8.318060e-01 0.000000e+00 0.000000e+00
1
Step 131000
Ar 8.513780e-01 0.000000e+00 0.000000e+00
1
Step 132000
Ar 8.747621e-01 0.000000e+00 0.000000e+00
1
Step 133000
Ar 1.020330e+00 0.000000e+00 0.000000e+00
1
Step 134000
Ar 9.633300e-01 0.000000e+00 0.000000e+00
1
Step 135000
Ar 1.044398e+00 0.000000e+00 0.000000e+00
1
Step 136000
Ar 1.000465e+00 0.000000e+00 0.000000e+00
1
Step 137000
Ar 8.897734e-01 0.000000e+00 0.000000e+00
1
Step 138000
Ar 7.557462e-01 0.000000e+00 0.000000e+00
1
Step 139000
Ar 8.707700e-01 0.000000e+00 0.000000e+00
1
Step 140000
Ar 6.246978e-01 0.000000e+00 0.000000e+00
1
Step 141000
Ar 1.150022e+00 0.000000e+00 0.000000e+00
1
Step 142000
Ar 1.028344e+00 0.000000e+00 0.000000e+00
1
Step 143000
Ar 9.745574e-01 0.000000e+00 0.000000e+00
1
Step 144000
Ar 1.045061e+00 0.000000e+00 0.000000e+00
1
Step 145000
Ar 1.013912e+00 0.000000e+00 0.000000e+00
1
Step 146000
Ar 9.453254e-01 0.000000e+00 0.000000e+00
1
Step 147000
Ar 8.176687e-01 0.000000e+00 0.000000e+00
1
Step 148000
Ar 9.075848e-01 0.000000e+00 0.000000e+00
1
Step 149000
Ar 1.009501e+00 0.000000e+00 0.000000e+00
1
Step 150000
Ar 8.678127e-01 0.000000e+00 0.000000e+00
1
Step 151000
Ar 9.049264e-01 0.000000e+00 0.000000e+00
1
Step 152000
Ar 1.076664e+00 0.000000e+00 0.000000e+00
1
Step 153000
Ar 9.637254e-01 0.000000e+00 0.000000e+00
1
Step 154000
Ar 1.048912e+00 0.000000e+00 0.000000e+00
1
Step 155000
Ar 9.556378e-01 0.000000e+00 0.000000e+00
1
Step 156000
Ar 1.160793e+00 0.000000e+00 0.000000e+00
1
Step 157000
Ar 9.923002e-01 0.000000e+00 0.000000e+00
1
Step 158000
Ar 1.196543e+00 0.000000e+00 0.000000e+00
1
Step 159000
Ar 9.225209e-01 0.000000e+00 0.000000e+00
1
Step 160000
Ar 1.081125e+00 0.000000e+00 0.000000e+00
1
Step 161000
Ar 9.663550e-01 0.000000e+00 0.000000e+00
1
Step 162000
Ar 1.024096e+00 0.000000e+00 0.000000e+00
1
Step 163000
Ar 1.109764e+00 0.000000e+00 0.000000e+00
1
Step 164000
Ar 1.061582e+00 0.000000e+00 0.000000e+00
1
Step 165000
Ar 8.829307e-01 0.000000e+00 0.000000e+00
1
Step 166000
Ar 9.445405e-01 0.000000e+00 0.000000e+00
1
Step 167000
Ar 9.584561e-01 0.000000e+00 0.000000e+00
1
Step 168000
Ar 8.702101e-01 0.000000e+00 0.000000e+00
1
Step 169000
Ar 9.861166e-01 0.000000e+00 0.000000e+00
1
Step 170000
Ar 7.977733e-01 0.000000e+00 0.000000e+00
1
Step 171000
Ar 9.342426e-01 0.000000e+00 0.000000e+00
1
Step 172000
Ar 9.885707e-01 0.000000e+00 0.000000e+00
1
Step 173000
Ar 8.905693e-01 0.000000e+00 0.000000e+00
1
Step 174000
Ar 1.009036e+00 0.000000e+00 0.000000e+00
1
Step 175000
Ar 6.923108e-01 0.000000e+00 0.000000e+00
1
Step 176000
Ar 1.031037e+00 0.000000e+00 0.000000e+00
1
Step 177000
Ar 9.910451e-01 0.000000e+00 0.000000e+00
1
Step 178000
Ar 1.149892e+00 0.000000e+00 0.000000e+00
1
Step 179000
Ar 9.259619e-01 0.000000e+00 0.000000e+00
1
Step 180000
Ar 1.171543e+00 0.000000e+00 0.000000e+00
1
Step 181000
Ar 1.124350e+00 0.000000e+00 0.000000e+00
1
Step 182000
Ar 9.787374e-01 0.000000e+00 0.000000e+00
1
Step 183000
Ar 9.570659e-01 0.000000e+00 0.000000e+00
1
Step 184000
Ar 9.839389e-01 0.000000e+00 0.000000e+00
1
Step 185000
Ar 9.011462e-01 0.000000e+00 0.000000e+00
1
Step 186000
Ar 9.581469e-01 0.000000e+00 0.000000e+00
1
Step 187000
Ar 9.079727e-01 0.000000e+00 0.000000e+00
1
Step 188000
Ar 7.258336e-01 0.000000e+00 0.000000e+00
1
Step 189000
Ar 1.152925e+00 0.000000e+00 0.000000e+00
1
Step 190000
Ar 1.033769e+00 0.000000e+00 0.000000e+00
1
Step 191000
Ar 1.086758e+00 0.000000e+00 0.000000e+00
1
Step 192000
Ar 1.063063e+00 0.000000e+00 0.000000e+00
1
Step 193000
Ar 1.103387e+00 0.000000e+00 0.000000e+00
1
Step 194000
Ar 8.299952e-01 0.000000e+00 0.000000e+00
1
Step 195000
Ar 9.035864e-01 0.000000e+00 0.000000e+00
1
Step 196000
Ar 9.883096e-01 0.000000e+00 0.000000e+00
1
Step 197000
Ar 1.048865e+00 0.000000e+00 0.000000e+00
1
Step 198000
Ar 9.771603e-01 0.000000e+00 0.000000e+00
1
Step 199000
Ar 1.005253e+00 0.000000e+00 0.000000e+00
1
Step 200000
Ar 1.011917e+00 0.000000e+00 0.000000e+00
1
Step 201000
Ar 8.317236e-01 0.000000e+00 0.000000e+00
1
Step 202000
Ar 9.099716e-01 0.000000e+00 0.000000e+00
1
Step 203000
Ar 9.913099e-01 0.000000e+00 0.000000e+00
1
Step 204000
Ar 1.014543e+00 0.000000e+00 0.000000e+00
1
Step 205000
Ar 1.101097e+00 0.000000e+00 0.000000e+00
1
Step 206000
Ar 9.433248e-01 0.000000e+00 0.000000e+00
1
Step 207000
Ar 8.880606e-01 0.000000e+00 0.000000e+00
1
Step 208000
Ar 1.014225e+00 0.000000e+00 0.000000e+00
1
Step 209000
Ar 8.901670e-01 0.000000e+00 0.000000e+00
1
Step 210000
Ar 9.737338e-01 0.000000e+00 0.000000e+00
1
Step 211000
Ar 9.906205e-01 0.000000e+00 0.000000e+00
1
Step 212000
Ar 9.691572e-01 0.000000e+00 0.000000e+00
1
Step 213000
Ar 8.413354e-01 0.000000e+00 0.000000e+00
1
Step 214000
Ar 1.018821e+00 0.000000e+00 0.000000e+00
1
Step 215000
Ar 1.107362e+00 0.000000e+00 0.000000e+00
1
Step 216000
Ar 1.046244e+00 0.000000e+00 0.000000e+00
1
Step 217000
Ar 9.109987e-01 0.000000e+00 0.000000e+00
1
Step 218000
Ar 1.120431e+00 0.000000e+00 0.000000e+00
1
Step 219000
Ar 9.868974e-01 0.000000e+00 0.000000e+00
1
Step 220000
Ar 9.887494e-01 0.000000e+00 0.000000e+00
1
Step 221000
Ar 1.122392e+00 0.000000e+00 0.000000e+00
1
Step 222000
Ar 9.859701e-01 0.000000e+00 0.000000e+00
1
Step 223000
Ar 8.714449e-01 0.000000e+00 0.000000e+00
1
Step 224000
Ar 7.648804e-01 0.000000e+00 0.000000e+00
1
Step 225000
Ar 9.287094e-01 0.000000e+00 0.000000e+00
1
Step 226000
Ar 1.078955e+00 0.000000e+00 0.000000e+00
1
Step 227000
Ar 1.033557e+00 0.000000e+00 0.000000e+00
1
Step 228000
Ar 1.141823e+00 0.000000e+00 0.000000e+00
1
Step 229000
Ar 1.081360e+00 0.000000e+00 0.000000e+00
1
Step 230000
Ar 9.466935e-01 0.000000e+00 0.000000e+00
1
Step 231000
Ar 1.090878e+00 0.000000e+00 0.000000e+00
1
Step 232000
Ar 9.925410e-01 0.000000e+00 0.000000e+00
1
Step 233000
Ar 9.456818e-01 0.000000e+00 0.000000e+00
1
Step 234000
Ar 9.116939e-01 0.000000e+00 0.000000e+00
1
Step 235000
Ar 8.692723e-01 0.000000e+00 0.000000e+00
1
Step 236000
Ar 1.010706e+00 0.000000e+00 0.000000e+00
1
Step 237000
Ar 1.078725e+00 0.000000e+00 0.000000e+00
1
Step 238000
Ar 1.032769e+00 0.000000e+00 0.000000e+00
1
Step 239000
Ar 1.135240e+00 0.000000e+00 0.000000e+00
1
Step 240000
Ar 8.959195e-01 0.000000e+00 0.000000e+00
1
Step 241000
Ar 7.477916e-01 0.000000e+00 0.000000e+00
1
Step 242000
Ar 9.608987e-01 0.000000e+00 0.000000e+00
1
Step 243000
Ar 1.061246e+00 0.000000e+00 0.000000e+00
1
Step 244000
Ar 8.111602e-01 0.000000e+00 0.000000e+00
1
Step 245000
Ar 1.198119e+00 0.000000e+00 0.000000e+00
1
Step 246000
Ar 1.044305e+00 0.000000e+00 0.000000e+00
1
Step 247000
Ar 1.138498e+00 0.000000e+00 0.000000e+00
1
Step 248000
Ar 9.149883e-01 0.000000e+00 0.000000e+00
1
Step 249000
Ar 8.377424e-01 0.000000e+00 0.000000e+00
1
Step 250000
Ar 1.085911e+00 0.000000e+00 0.000000e+00
1
Step 251000
Ar 1.112534e+00 0.000000e+00 0.000000e+00
1
Step 252000
Ar 1.160218e+00 0.000000e+00 0.000000e+00
1
Step 253000
Ar 8.978818e-01 0.000000e+00 0.000000e+00
1
Step 254000
Ar 8.130479e-01 0.000000e+00 0.000000e+00
1
Step 255000
Ar 1.048296e+00 0.000000e+00 0.000000e+00
1
Step 256000
Ar 8.409695e-01 0.000000e+00 0.000000e+00
1
Step 257000
Ar 8.486741e-01 0.000000e+00 0.000000e+00
1
Step 258000
Ar 8.684529e-01 0.000000e+00 0.000000e+00
1
Step 259000
Ar 1.122145e+00 0.000000e+00 0.000000e+00
1
Step 260000
Ar 9.624927e-01 0.000000e+00 0.000000e+00
1
Step 261000
Ar 8.029878e-01 0.000000e+00 0.000000e+00
1
Step 262000
Ar 9.214842e-01 0.000000e+00 0.000000e+00
1
Step 263000
Ar 9.651896e-01 0.000000e+00 0.000000e+00
1
Step 264000
Ar 9.743247e-01 0.000000e+00 0.000000e+00
1
Step 265000
Ar 1.171419e+00 0.000000e+00 0.000000e+00
1
Step 266000
Ar 9.378662e-01 0.000000e+00 0.000000e+00
1
Step 267000
Ar 7.963224e-01 0.000000e+00 0.000000e+00
1
Step 268000
Ar 1.084497e+00 0.000000e+00 0.000000e+00
1
Step 269000
Ar 1.125638e+00 0.000000e+00 0.000000e+00
1
Step 270000
Ar 1.003157e+00 0.000000e+00 0.000000e+00
1
Step 271000
Ar 8.861308e-01 0.000000e+00 0.000000e+00
1
Step 272000
Ar 7.718668e-01 0.000000e+00 0.000000e+00
1
Step 273000
Ar 9.478869e-01 0.000000e+00 0.000000e+00
1
Step 274000
Ar 1.146593e+00 0.000000e+00 0.000000e+00
1
Step 275000
Ar 1.103914e+00 0.000000e+00 0.000000e+00
1
Step 276000
Ar 1.033081e+00 0.000000e+00 0.000000e+00
1
Step 277000
Ar 1.104033e+00 0.000000e+00 0.000000e+00
1
Step 278000
Ar 8.612964e-01 0.000000e+00 0.000000e+00
1
Step 279000
Ar 7.985180e-01 0.000000e+00 0.000000e+00
1
Step 280000
Ar 9.763437e-01 0.000000e+00 0.000000e+00
1
Step 281000
Ar 1.112057e+00 0.000000e+00 0.000000e+00
1
Step 282000
Ar 8.702619e-01 0.000000e+00 0.000000e+00
1
Step 283000
Ar 1.062258e+00 0.000000e+00 0.000000e+00
1
Step 284000
Ar 9.021563e-01 0.000000e+00 0.000000e+00
1
Step 285000
Ar 9.101397e-01 0.000000e+00 0.000000e+00
1
Step 286000
Ar 1.104749e+00 0.000000e+00 0.000000e+00
1
Step 287000
Ar 1.009525e+00 0.000000e+00 0.000000e+00
1
Step 288000
Ar 1.029042e+00 0.000000e+00 0.000000e+00
1
Step 289000
Ar 1.060435e+00 0.000000e+00 0.000000e+00
1
Step 290000
Ar 1.035506e+00 0.000000e+00 0.000000e+00
1
Step 291000
Ar 8.068461e-01 0.000000e+00 0.000000e+00
1
Step 292000
Ar 8.448154e-01 0.000000e+00 0.000000e+00
1
Step 293000
Ar 1.079925e+00 0.000000e+00 0.000000e+00
1
Step 294000
Ar 1.030486e+00 0.000000e+00 0.000000e+00
1
Step 295000
Ar 9.723561e-01 0.000000e+00 0.000000e+00
1
Step 296000
Ar 1.191930e+00 0.000000e+00 0.000000e+00
1
Step 297000
Ar 9.564088e-01 0.000000e+00 0.000000e+00
1
Step 298000
Ar 9.993222e-01 0.000000e+00 0.000000e+00
1
Step 299000
Ar 9.832228e-01 0.000000e+00 0.000000e+00
1
Step 300000
Ar 9.705945e-01 0.000000e+00 0.000000e+00
1
Step 301000
Ar 8.652506e-01 0.000000e+00 0.000000e+00
1
Step 302000
Ar 9.274434e-01 0.000000e+00 0.000000e+00
1
Step 303000
Ar 9.665050e-01 0.000000e+00 0.000000e+00
1
Step 304000
Ar 9.708380e-01 0.000000e+00 0.000000e+00
1
Step 305000
Ar 8.201609e-01 0.000000e+00 0.000000e+00
1
Step 306000
Ar 1.133135e+00 0.000000e+00 0.000000e+00
1
Step 307000
Ar 9.387525e-01 0.000000e+00 0.000000e+00
1
Step 308000
Ar 9.700932e-01 0.000000e+00 0.000000e+00
1
Step 309000
Ar 1.059106e+00 0.000000e+00 0.000000e+00
1
Step 310000
Ar 9.051863e-01 0.000000e+00 0.000000e+00
1
Step 311000
Ar 1.095688e+00 0.000000e+00 0.000000e+00
1
Step 312000
Ar 1.017696e+00 0.000000e+00 0.000000e+00
1
Step 313000
Ar 8.158915e-01 0.000000e+00 0.000000e+00
1
Step 314000
Ar 1.031000e+00 0.000000e+00 0.000000e+00
1
Step 315000
Ar 9.343189e-01 0.000000e+00 0.000000e+00
1
Step 316000
Ar 8.859020e-01 0.000000e+00 0.000000e+00
1
Step 317000
Ar 7.814068e-01 0.000000e+00 0.000000e+00
1
Step 318000
Ar 1.160939e+00 0.000000e+00 0.000000e+00
1
Step 319000
Ar 1.095445e+00 0.000000e+00 0.000000e+00
1
Step 320000
Ar 9.784779e-01 0.000000e+00 0.000000e+00
1
Step 321000
Ar 8.097733e-01 0.000000e+00 0.000000e+00
1
Step 322000
Ar 9.218606e-01 0.000000e+00 0.000000e+00
1
Step 323000
Ar 9.582772e-01 0.000000e+00 0.000000e+00
1
Step 324000
Ar 9.310854e-01 0.000000e+00 0.000000e+00
1
Step 325000
Ar 1.104435e+00 0.000000e+00 0.000000e+00
1
Step 326000
Ar 8.778222e-01 0.000000e+00 0.000000e+00
1
Step 327000
Ar 1.149352e+00 0.000000e+00 0.000000e+00
1
Step 328000
Ar 9.389185e-01 0.000000e+00 0.000000e+00
1
Step 329000
Ar 1.202723e+00 0.000000e+00 0.000000e+00
1
Step 330000
Ar 9.748815e-01 0.000000e+00 0.000000e+00
1
Step 331000
Ar 1.148257e+00 0.000000e+00 0.000000e+00
1
Step 332000
Ar 9.292066e-01 0.000000e+00 0.000000e+00
1
Step 333000
Ar 1.000650e+00 0.000000e+00 0.000000e+00
1
Step 334000
Ar 1.102377e+00 0.000000e+00 0.000000e+00
1
Step 335000
Ar 8.105623e-01 0.000000e+00 0.000000e+00
1
Step 336000
Ar 1.008604e+00 0.000000e+00 0.000000e+00
1
Step 337000
Ar 9.929390e-01 0.000000e+00 0.000000e+00
1
Step 338000
Ar 1.071244e+00 0.000000e+00 0.000000e+00
1
Step 339000
Ar 8.545149e-01 0.000000e+00 0.000000e+00
1
Step 340000
Ar 1.377200e+00 0.000000e+00 0.000000e+00
1
Step 341000
Ar 1.076501e+00 0.000000e+00 0.000000e+00
1
Step 342000
Ar 1.065134e+00 0.000000e+00 0.000000e+00
1
Step 343000
Ar 8.666398e-01 0.000000e+00 0.000000e+00
1
Step 344000
Ar 1.052174e+00 0.000000e+00 0.000000e+00
1
Step 345000
Ar 6.771063e-01 0.000000e+00 0.000000e+00
1
Step 346000
Ar 9.508240e-01 0.000000e+00 0.000000e+00
1
Step 347000
Ar 8.089197e-01 0.000000e+00 0.000000e+00
1
Step 348000
Ar 1.085910e+00 0.000000e+00 0.000000e+00
1
Step 349000
Ar 1.119735e+00 0.000000e+00 0.000000e+00
1
Step 350000
Ar 9.717840e-01 0.000000e+00 0.000000e+00
1
Step 351000
Ar 9.381845e-01 0.000000e+00 0.000000e+00
1
Step 352000
Ar 8.810344e-01 0.000000e+00 0.000000e+00
1
Step 353000
Ar 1.029378e+00 0.000000e+00 0.000000e+00
1
Step 354000
Ar 1.057788e+00 0.000000e+00 0.000000e+00
1
Step 355000
Ar 1.147689e+00 0.000000e+00 0.000000e+00
1
Step 356000
Ar 8.164466e-01 0.000000e+00 0.000000e+00
1
Step 357000
Ar 1.020291e+00 0.000000e+00 0.000000e+00
1
Step 358000
Ar 8.520131e-01 0.000000e+00 0.000000e+00
1
Step 359000
Ar 1.075211e+00 0.000000e+00 0.000000e+00
1
Step 360000
Ar 1.096078e+00 0.000000e+00 0.000000e+00
1
Step 361000
Ar 1.053398e+00 0.000000e+00 0.000000e+00
1
Step 362000
Ar 1.163993e+00 0.000000e+00 0.000000e+00
1
Step 363000
Ar 6.939038e-01 0.000000e+00 0.000000e+00
1
Step 364000
Ar 9.247284e-01 0.000000e+00 0.000000e+00
1
Step 365000
Ar 1.029768e+00 0.000000e+00 0.000000e+00
1
Step 366000
Ar 8.536978e-01 0.000000e+00 0.000000e+00
1
Step 367000
Ar 9.253099e-01 0.000000e+00 0.000000e+00
1
Step 368000
Ar 8.795743e-01 0.000000e+00 0.000000e+00
1
Step 369000
Ar 9.629042e-01 0.000000e+00 0.000000e+00
1
Step 370000
Ar 9.377560e-01 0.000000e+00 0.000000e+00
1
Step 371000
Ar 1.112586e+00 0.000000e+00 0.000000e+00
1
Step 372000
Ar 1.032287e+00 0.000000e+00 0.000000e+00
1
Step 373000
Ar 1.007823e+00 0.000000e+00 0.000000e+00
1
Step 374000
Ar 1.014798e+00 0.000000e+00 0.000000e+00
1
Step 375000
Ar 1.025839e+00 0.000000e+00 0.000000e+00
1
Step 376000
Ar 9.088488e-01 0.000000e+00 0.000000e+00
1
Step 377000
Ar 1.042107e+00 0.000000e+00 0.000000e+00
1
Step 378000
Ar 7.461081e-01 0.000000e+00 0.000000e+00
1
Step 379000
Ar 1.078903e+00 0.000000e+00 0.000000e+00
1
Step 380000
Ar 9.624586e-01 0.000000e+00 0.000000e+00
1
Step 381000
Ar 9.202911e-01 0.000000e+00 0.000000e+00
1
Step 382000
Ar 1.109195e+00 0.000000e+00 0.000000e+00
1
Step 383000
Ar 1.145423e+00 0.000000e+00 0.000000e+00
1
Step 384000
Ar 6.853199e-01 0.000000e+00 0.000000e+00
1
Step 385000
Ar 6.431599e-01 0.000000e+00 0.000000e+00
1
Step 386000
Ar 9.890103e-01 0.000000e+00 0.000000e+00
1
Step 387000
Ar 1.047277e+00 0.000000e+00 0.000000e+00
1
Step 388000
Ar 9.065529e-01 0.000000e+00 0.000000e+00
1
Step 389000
Ar 9.087962e-01 0.000000e+00 0.000000e+00
1
Step 390000
Ar 9.550107e-01 0.000000e+00 0.000000e+00
1
Step 391000
Ar 8.042885e-01 0.000000e+00 0.000000e+00
1
Step 392000
Ar 1.087692e+00 0.000000e+00 0.000000e+00
1
Step 393000
Ar 9.481340e-01 0.000000e+00 0.000000e+00
1
Step 394000
Ar 1.003196e+00 0.000000e+00 0.000000e+00
1
Step 395000
Ar 9.554781e-01 0.000000e+00 0.000000e+00
1
Step 396000
Ar 9.632338e-01 0.000000e+00 0.000000e+00
1
Step 397000
Ar 8.736605e-01 0.000000e+00 0.000000e+00
1
Step 398000
Ar 1.145988e+00 0.000000e+00 0.000000e+00
1
Step 399000
Ar 1.102855e+00 0.000000e+00 0.000000e+00
1
Step 400000
Ar 1.023910e+00 0.000000e+00 0.000000e+00
1
Step 401000
Ar 9.421148e-01 0.000000e+00 0.000000e+00
1
Step 402000
Ar 9.238382e-01 0.000000e+00 0.000000e+00
1
Step 403000
Ar 1.144160e+00 0.000000e+00 0.000000e+00
1
Step 404000
Ar 9.527824e-01 0.000000e+00 0.000000e+00
1
Step 405000
Ar 9.687666e-01 0.000000e+00 0.000000e+00
1
Step 406000
Ar 1.004485e+00 0.000000e+00 0.000000e+00
1
Step 407000
Ar 1.120608e+00 0.000000e+00 0.000000e+00
1
Step 408000
Ar 1.082971e+00 0.000000e+00 0.000000e+00
1
Step 409000
Ar 9.249354e-01 0.000000e+00 0.000000e+00
1
Step 410000
Ar 1.026397e+00 0.000000e+00 0.000000e+00
1
Step 411000
Ar 1.024766e+00 0.000000e+00 0.000000e+00
1
Step 412000
Ar 1.084094e+00 0.000000e+00 0.000000e+00
1
Step 413000
Ar 1.019840e+00 0.000000e+00 0.000000e+00
1
Step 414000
Ar 1.086480e+00 0.000000e+00 0.000000e+00
1
Step 415000
Ar 9.611671e-01 0.000000e+00 0.000000e+00
1
Step 416000
Ar 8.996040e-01 0.000000e+00 0.000000e+00
1
Step 417000
Ar 9.599338e-01 0.000000e+00 0.000000e+00
1
Step 418000
Ar 1.015570e+00 0.000000e+00 0.000000e+00
1
Step 419000
Ar 7.590279e-01 0.000000e+00 0.000000e+00
1
Step 420000
Ar 9.669023e-01 0.000000e+00 0.000000e+00
1
Step 421000
Ar 1.187241e+00 0.000000e+00 0.000000e+00
1
Step 422000
Ar 1.034332e+00 0.000000e+00 0.000000e+00
1
Step 423000
Ar 1.018762e+00 0.000000e+00 0.000000e+00
1
Step 424000
Ar 1.029652e+00 0.000000e+00 0.000000e+00
1
Step 425000
Ar 1.010684e+00 0.000000e+00 0.000000e+00
1
Step 426000
Ar 6.771953e-01 0.000000e+00 0.000000e+00
1
Step 427000
Ar 1.029025e+00 0.000000e+00 0.000000e+00
1
Step 428000
Ar 7.454714e-01 0.000000e+00 0.000000e+00
1
Step 429000
Ar 9.609236e-01 0.000000e+00 0.000000e+00
1
Step 430000
Ar 1.040636e+00 0.000000e+00 0.000000e+00
1
Step 431000
Ar 9.898496e-01 0.000000e+00 0.000000e+00
1
Step 432000
Ar 1.018949e+00 0.000000e+00 0.000000e+00
1
Step 433000
Ar 1.022584e+00 0.000000e+00 0.000000e+00
1
Step 434000
Ar 9.664286e-01 0.000000e+00 0.000000e+00
1
Step 435000
Ar 1.030984e+00 0.000000e+00 0.000000e+00
1
Step 436000
Ar 1.139478e+00 0.000000e+00 0.000000e+00
1
Step 437000
Ar 1.191343e+00 0.000000e+00 0.000000e+00
1
Step 438000
Ar 1.050042e+00 0.000000e+00 0.000000e+00
1
Step 439000
Ar 1.074567e+00 0.000000e+00 0.000000e+00
1
Step 440000
Ar 8.773229e-01 0.000000e+00 0.000000e+00
1
Step 441000
Ar 9.173933e-01 0.000000e+00 0.000000e+00
1
Step 442000
Ar 9.206659e-01 0.000000e+00 0.000000e+00
1
Step 443000
Ar 8.203888e-01 0.000000e+00 0.000000e+00
1
Step 444000
Ar 9.545190e-01 0.000000e+00 0.000000e+00
1
Step 445000
Ar 8.934989e-01 0.000000e+00 0.000000e+00
1
Step 446000
Ar 9.379008e-01 0.000000e+00 0.000000e+00
1
Step 447000
Ar 1.087648e+00 0.000000e+00 0.000000e+00
1
Step 448000
Ar 1.040859e+00 0.000000e+00 0.000000e+00
1
Step 449000
Ar 9.101069e-01 0.000000e+00 0.000000e+00
1
Step 450000
Ar 9.578838e-01 0.000000e+00 0.000000e+00
1
Step 451000
Ar 8.954479e-01 0.000000e+00 0.000000e+00
1
Step 452000
Ar 1.051011e+00 0.000000e+00 0.000000e+00
1
Step 453000
Ar 7.746119e-01 0.000000e+00 0.000000e+00
1
Step 454000
Ar 1.014324e+00 0.000000e+00 0.000000e+00
1
Step 455000
Ar 1.193759e+00 0.000000e+00 0.000000e+00
1
Step 456000
Ar 9.606938e-01 0.000000e+00 0.000000e+00
1
Step 457000
Ar 1.157321e+00 0.000000e+00 0.000000e+00
1
Step 458000
Ar 1.024379e+00 0.000000e+00 0.000000e+00
1
Step 459000
Ar 7.744668e-01 0.000000e+00 0.000000e+00
1
Step 460000
Ar 1.036279e+00 0.000000e+00 0.000000e+00
1
Step 461000
Ar 1.034760e+00 0.000000e+00 0.000000e+00
1
Step 462000
Ar 9.534754e-01 0.000000e+00 0.000000e+00
1
Step 463000
Ar 8.911380e-01 0.000000e+00 0.000000e+00
1
Step 464000
Ar 9.767599e-01 0.000000e+00 0.000000e+00
1
Step 465000
Ar 1.040243e+00 0.000000e+00 0.000000e+00
1
Step 466000
Ar 8.103852e-01 0.000000e+00 0.000000e+00
1
Step 467000
Ar 8.984176e-01 0.000000e+00 0.000000e+00
1
Step 468000
Ar 1.065354e+00 0.000000e+00 0.000000e+00
1
Step 469000
Ar 8.588767e-01 0.000000e+00 0.000000e+00
1
Step 470000
Ar 1.021735e+00 0.000000e+00 0.000000e+00
1
Step 471000
Ar 9.610343e-01 0.000000e+00 0.000000e+00
1
Step 472000
Ar 9.834237e-01 0.000000e+00 0.000000e+00
1
Step 473000
Ar 7.556631e-01 0.000000e+00 0.000000e+00
1
Step 474000
Ar 1.012770e+00 0.000000e+00 0.000000e+00
1
Step 475000
Ar 8.534449e-01 0.000000e+00 0.000000e+00
1
Step 476000
Ar 9.385457e-01 0.000000e+00 0.000000e+00
1
Step 477000
Ar 1.194830e+00 0.000000e+00 0.000000e+00
1
Step 478000
Ar 9.958526e-01 0.000000e+00 0.000000e+00
1
Step 479000
Ar 1.062488e+00 0.000000e+00 0.000000e+00
1
Step 480000
Ar 1.091412e+00 0.000000e+00 0.000000e+00
1
Step 481000
Ar 5.930122e-01 0.000000e+00 0.000000e+00
1
Step 482000
Ar 9.632358e-01 0.000000e+00 0.000000e+00
1
Step 483000
Ar 9.365645e-01 0.000000e+00 0.000000e+00
1
Step 484000
Ar 1.041035e+00 0.000000e+00 0.000000e+00
1
Step 485000
Ar 9.159001e-01 0.000000e+00 0.000000e+00
1
Step 486000
Ar 1.091024e+00 0.000000e+00 0.000000e+00
1
Step 487000
Ar 7.773545e-01 0.000000e+00 0.000000e+00
1
Step 488000
Ar 1.030447e+00 0.000000e+00 0.000000e+00
1
Step 489000
Ar 9.022978e-01 0.000000e+00 0.000000e+00
1
Step 490000
Ar 1.144609e+00 0.000000e+00 0.000000e+00
1
Step 491000
Ar 9.715289e-01 0.000000e+00 0.000000e+00
1
Step 492000
Ar 9.201712e-01 0.000000e+00 0.000000e+00
1
Step 493000
Ar 6.815219e-01 0.000000e+00 0.000000e+00
1
Step 494000
Ar 1.083257e+00 0.000000e+00 0.000000e+00
1
Step 495000
Ar 1.198011e+00 0.000000e+00 0.000000e+00
1
Step 496000
Ar 1.054741e+00 0.000000e+00 0.000000e+00
1
Step 497000
Ar 9.608010e-01 0.000000e+00 0.000000e+00
1
Step 498000
Ar 1.025677e+00 0.000000e+00 0.000000e+00
1
Step 499000
Ar 7.854018e-01 0.000000e+00 0.000000e+00
1
Step 500000
Ar 1.082160e+00 0.000000e+00 0.000000e+00
1
Step 501000
Ar 1.099792e+00 0.000000e+00 0.000000e+00
1
Step 502000
Ar 9.334005e-01 0.000000e+00 0.000000e+00
1
Step 503000
Ar 9.418556e-01 0.000000e+00 0.000000e+00
1
Step 504000
Ar 9.688844e-01 0.000000e+00 0.000000e+00
1
Step 505000
Ar 1.120398e+00 0.000000e+00 0.000000e+00
1
Step 506000
Ar 1.006877e+00 0.000000e+00 0.000000e+00
1
Step 507000
Ar 9.943838e-01 0.000000e+00 0.000000e+00
1
Step 508000
Ar 9.501783e-01 0.000000e+00 0.000000e+00
1
Step 509000
Ar 1.120034e+00 0.000000e+00 0.000000e+00
1
Step 510000
Ar 9.584154e-01 0.000000e+00 0.000000e+00
1
Step 511000
Ar 8.456234e-01 0.000000e+00 0.000000e+00
1
Step 512000
Ar 1.070117e+00 0.000000e+00 0.000000e+00
1
Step 513000
Ar 1.122961e+00 0.000000e+00 0.000000e+00
1
Step 514000
Ar 1.003850e+00 0.000000e+00 0.000000e+00
1
Step 515000
Ar 9.899268e-01 0.000000e+00 0.000000e+00
1
Step 516000
Ar 9.050653e-01 0.000000e+00 0.000000e+00
1
Step 517000
Ar 1.065246e+00 0.000000e+00 0.000000e+00
1
Step 518000
Ar 9.813568e-01 0.000000e+00 0.000000e+00
1
Step 519000
Ar 1.087606e+00 0.000000e+00 0.000000e+00
1
Step 520000
Ar 9.336628e-01 0.000000e+00 0.000000e+00
1
Step 521000
Ar 1.006739e+00 0.000000e+00 0.000000e+00
1
Step 522000
Ar 1.048464e+00 0.000000e+00 0.000000e+00
1
Step 523000
Ar 1.052843e+00 0.000000e+00 0.000000e+00
1
Step 524000
Ar 1.043298e+00 0.000000e+00 0.000000e+00
1
Step 525000
Ar 1.140579e+00 0.000000e+00 0.000000e+00
1
Step 526000
Ar 1.047493e+00 0.000000e+00 0.000000e+00
1
Step 527000
Ar 1.135723e+00 0.000000e+00 0.000000e+00
1
Step 528000
Ar 9.923113e-01 0.000000e+00 0.000000e+00
1
Step 529000
Ar 1.263427e+00 0.000000e+00 0.000000e+00
1
Step 530000
Ar 9.494410e-01 0.000000e+00 0.000000e+00
1
Step 531000
Ar 9.747650e-01 0.000000e+00 0.000000e+00
1
Step 532000
Ar 1.141836e+00 0.000000e+00 0.000000e+00
1
Step 533000
Ar 1.050336e+00 0.000000e+00 0.000000e+00
1
Step 534000
Ar 1.067040e+00 0.000000e+00 0.000000e+00
1
Step 535000
Ar 1.164128e+00 0.000000e+00 0.000000e+00
1
Step 536000
Ar 1.034584e+00 0.000000e+00 0.000000e+00
1
Step 537000
Ar 1.067767e+00 0.000000e+00 0.000000e+00
1
Step 538000
Ar 1.104353e+00 0.000000e+00 0.000000e+00
1
Step 539000
Ar 9.947341e-01 0.000000e+00 0.000000e+00
1
Step 540000
Ar 1.011169e+00 0.000000e+00 0.000000e+00
1
Step 541000
Ar 1.135189e+00 0.000000e+00 0.000000e+00
1
Step 542000
Ar 1.043527e+00 0.000000e+00 0.000000e+00
1
Step 543000
Ar 1.111581e+00 0.000000e+00 0.000000e+00
1
Step 544000
Ar 1.158401e+00 0.000000e+00 0.000000e+00
1
Step 545000
Ar 9.722495e-01 0.000000e+00 0.000000e+00
1
Step 546000
Ar 1.061730e+00 0.000000e+00 0.000000e+00
1
Step 547000
Ar 1.113958e+00 0.000000e+00 0.000000e+00
1
Step 548000
Ar 1.047478e+00 0.000000e+00 0.000000e+00
1
Step 549000
Ar 1.069047e+00 0.000000e+00 0.000000e+00
1
Step 550000
Ar 9.852860e-01 0.000000e+00 0.000000e+00
1
Step 551000
Ar 1.022283e+00 0.000000e+00 0.000000e+00
1
Step 552000
Ar 1.169479e+00 0.000000e+00 0.000000e+00
1
Step 553000
Ar 1.065836e+00 0.000000e+00 0.000000e+00
1
Step 554000
Ar 9.653119e-01 0.000000e+00 0.000000e+00
1
Step 555000
Ar 1.056270e+00 0.000000e+00 0.000000e+00
1
Step 556000
Ar 1.099850e+00 0.000000e+00 0.000000e+00
1
Step 557000
Ar 1.021975e+00 0.000000e+00 0.000000e+00
1
Step 558000
Ar 1.114859e+00 0.000000e+00 0.000000e+00
1
Step 559000
Ar 1.050007e+00 0.000000e+00 0.000000e+00
1
Step 560000
Ar 1.116909e+00 0.000000e+00 0.000000e+00
1
Step 561000
Ar 1.034872e+00 0.000000e+00 0.000000e+00
1
Step 562000
Ar 1.027583e+00 0.000000e+00 0.000000e+00
1
Step 563000
Ar 1.065486e+00 0.000000e+00 0.000000e+00
1
Step 564000
Ar 1.150369e+00 0.000000e+00 0.000000e+00
1
Step 565000
Ar 9.875344e-01 0.000000e+00 0.000000e+00
1
Step 566000
Ar 9.690060e-01 0.000000e+00 0.000000e+00
1
Step 567000
Ar 1.017032e+00 0.000000e+00 0.000000e+00
1
Step 568000
Ar 9.746934e-01 0.000000e+00 0.000000e+00
1
Step 569000
Ar 9.829676e-01 0.000000e+00 0.000000e+00
1
Step 570000
Ar 9.914634e-01 0.000000e+00 0.000000e+00
1
Step 571000
Ar 1.043992e+00 0.000000e+00 0.000000e+00
1
Step 572000
Ar 1.165297e+00 0.000000e+00 0.000000e+00
1
Step 573000
Ar 1.011328e+00 0.000000e+00 0.000000e+00
1
Step 574000
Ar 1.036610e+00 0.000000e+00 0.000000e+00
1
Step 575000
Ar 1.014504e+00 0.000000e+00 0.000000e+00
1
Step 576000
Ar 1.153655e+00 0.000000e+00 0.000000e+00
1
Step 577000
Ar 1.033036e+00 0.000000e+00 0.000000e+00
1
Step 578000
Ar 9.631497e-01 0.000000e+00 0.000000e+00
1
Step 579000
Ar 1.070867e+00 0.000000e+00 0.000000e+00
1
Step 580000
Ar 9.596044e-01 0.000000e+00 0.000000e+00
1
Step 581000
Ar 1.000676e+00 0.000000e+00 0.000000e+00
1
Step 582000
Ar 1.109484e+00 0.000000e+00 0.000000e+00
1
Step 583000
Ar 1.097165e+00 0.000000e+00 0.000000e+00
1
Step 584000
Ar 1.054101e+00 0.000000e+00 0.000000e+00
1
Step 585000
Ar 9.930187e-01 0.000000e+00 0.000000e+00
1
Step 586000
Ar 1.005420e+00 0.000000e+00 0.000000e+00
1
Step 587000
Ar 1.152998e+00 0.000000e+00 0.000000e+00
1
Step 588000
Ar 9.692984e-01 0.000000e+00 0.000000e+00
1
Step 589000
Ar 1.015108e+00 0.000000e+00 0.000000e+00
1
Step 590000
Ar 1.009285e+00 0.000000e+00 0.000000e+00
1
Step 591000
Ar 1.027180e+00 0.000000e+00 0.000000e+00
1
Step 592000
Ar 1.022370e+00 0.000000e+00 0.000000e+00
1
Step 593000
Ar 1.111087e+00 0.000000e+00 0.000000e+00
1
Step 594000
Ar 9.803997e-01 0.000000e+00 0.000000e+00
1
Step 595000
Ar 9.884523e-01 0.000000e+00 0.000000e+00
1
Step 596000
Ar 1.112075e+00 0.000000e+00 0.000000e+00
1
Step 597000
Ar 1.013620e+00 0.000000e+00 0.000000e+00
1
Step 598000
Ar 1.025369e+00 0.000000e+00 0.000000e+00
1
Step 599000
Ar 1.016848e+00 0.000000e+00 0.000000e+00
1
Step 600000
Ar 9.993610e-01 0.000000e+00 0.000000e+00
1
Step 601000
Ar 1.146013e+00 0.000000e+00 0.000000e+00
1
Step 602000
Ar 1.004068e+00 0.000000e+00 0.000000e+00
1
Step 603000
Ar 1.037688e+00 0.000000e+00 0.000000e+00
1
Step 604000
Ar 1.009583e+00 0.000000e+00 0.000000e+00
1
Step 605000
Ar 1.043111e+00 0.000000e+00 0.000000e+00
1
Step 606000
Ar 1.103744e+00 0.000000e+00 0.000000e+00
1
Step 607000
Ar 1.070270e+00 0.000000e+00 0.000000e+00
1
Step 608000
Ar 1.076131e+00 0.000000e+00 0.000000e+00
1
Step 609000
Ar 1.141151e+00 0.000000e+00 0.000000e+00
1
Step 610000
Ar 1.006467e+00 0.000000e+00 0.000000e+00
1
Step 611000
Ar 1.056451e+00 0.000000e+00 0.000000e+00
1
Step 612000
Ar 9.749878e-01 0.000000e+00 0.000000e+00
1
Step 613000
Ar 1.164673e+00 0.000000e+00 0.000000e+00
1
Step 614000
Ar 1.020579e+00 0.000000e+00 0.000000e+00
1
Step 615000
Ar 1.134684e+00 0.000000e+00 0.000000e+00
1
Step 616000
Ar 1.053219e+00 0.000000e+00 0.000000e+00
1
Step 617000
Ar 9.986057e-01 0.000000e+00 0.000000e+00
1
Step 618000
Ar 1.094502e+00 0.000000e+00 0.000000e+00
1
Step 619000
Ar 1.186744e+00 0.000000e+00 0.000000e+00
1
Step 620000
Ar 1.029199e+00 0.000000e+00 0.000000e+00
1
Step 621000
Ar 9.652167e-01 0.000000e+00 0.000000e+00
1
Step 622000
Ar 1.051840e+00 0.000000e+00 0.000000e+00
1
Step 623000
Ar 1.112637e+00 0.000000e+00 0.000000e+00
1
Step 624000
Ar 1.088692e+00 0.000000e+00 0.000000e+00
1
Step 625000
Ar 1.037979e+00 0.000000e+00 0.000000e+00
1
Step 626000
Ar 1.118258e+00 0.000000e+00 0.000000e+00
1
Step 627000
Ar 1.044512e+00 0.000000e+00 0.000000e+00
1
Step 628000
Ar 1.135685e+00 0.000000e+00 0.000000e+00
1
Step 629000
Ar 1.034186e+00 0.000000e+00 0.000000e+00
1
Step 630000
Ar 1.143104e+00 0.000000e+00 0.000000e+00
1
Step 631000
Ar 1.204399e+00 0.000000e+00 0.000000e+00
1
Step 632000
Ar 1.003080e+00 0.000000e+00 0.000000e+00
1
Step 633000
Ar 1.056817e+00 0.000000e+00 0.000000e+00
1
Step 634000
Ar 1.009387e+00 0.000000e+00 0.000000e+00
1
Step 635000
Ar 9.970262e-01 0.000000e+00 0.000000e+00
1
Step 636000
Ar 9.601113e-01 0.000000e+00 0.000000e+00
1
Step 637000
Ar 9.563409e-01 0.000000e+00 0.000000e+00
1
Step 638000
Ar 9.730267e-01 0.000000e+00 0.000000e+00
1
Step 639000
Ar 1.009797e+00 0.000000e+00 0.000000e+00
1
Step 640000
Ar 1.072191e+00 0.000000e+00 0.000000e+00
1
Step 641000
Ar 1.013439e+00 0.000000e+00 0.000000e+00
1
Step 642000
Ar 1.070773e+00 0.000000e+00 0.000000e+00
1
Step 643000
Ar 9.962772e-01 0.000000e+00 0.000000e+00
1
Step 644000
Ar 9.655187e-01 0.000000e+00 0.000000e+00
1
Step 645000
Ar 9.655147e-01 0.000000e+00 0.000000e+00
1
Step 646000
Ar 1.046939e+00 0.000000e+00 0.000000e+00
1
Step 647000
Ar 1.006402e+00 0.000000e+00 0.000000e+00
1
Step 648000
Ar 1.009337e+00 0.000000e+00 0.000000e+00
1
Step 649000
Ar 9.686573e-01 0.000000e+00 0.000000e+00
1
Step 650000
Ar 1.178202e+00 0.000000e+00 0.000000e+00
1
Step 651000
Ar 1.085513e+00 0.000000e+00 0.000000e+00
1
Step 652000
Ar 1.027305e+00 0.000000e+00 0.000000e+00
1
Step 653000
Ar 1.024849e+00 0.000000e+00 0.000000e+00
1
Step 654000
Ar 1.044424e+00 0.000000e+00 0.000000e+00
1
Step 655000
Ar 1.000746e+00 0.000000e+00 0.000000e+00
1
Step 656000
Ar 1.004994e+00 0.000000e+00 0.000000e+00
1
Step 657000
Ar 1.071459e+00 0.000000e+00 0.000000e+00
1
Step 658000
Ar 1.024976e+00 0.000000e+00 0.000000e+00
1
Step 659000
Ar 9.919432e-01 0.000000e+00 0.000000e+00
1
Step 660000
Ar 9.884202e-01 0.000000e+00 0.000000e+00
1
Step 661000
Ar 1.114762e+00 0.000000e+00 0.000000e+00
1
Step 662000
Ar 9.522968e-01 0.000000e+00 0.000000e+00
1
Step 663000
Ar 1.236363e+00 0.000000e+00 0.000000e+00
1
Step 664000
Ar 1.123620e+00 0.000000e+00 0.000000e+00
1
Step 665000
Ar 1.042241e+00 0.000000e+00 0.000000e+00
1
Step 666000
Ar 1.079245e+00 0.000000e+00 0.000000e+00
1
Step 667000
Ar 1.019054e+00 0.000000e+00 0.000000e+00
1
Step 668000
Ar 1.062281e+00 0.000000e+00 0.000000e+00
1
Step 669000
Ar 1.096494e+00 0.000000e+00 0.000000e+00
1
Step 670000
Ar 1.010112e+00 0.000000e+00 0.000000e+00
1
Step 671000
Ar 9.792873e-01 0.000000e+00 0.000000e+00
1
Step 672000
Ar 9.528802e-01 0.000000e+00 0.000000e+00
1
Step 673000
Ar 1.047506e+00 0.000000e+00 0.000000e+00
1
Step 674000
Ar 1.005431e+00 0.000000e+00 0.000000e+00
1
Step 675000
Ar 1.004929e+00 0.000000e+00 0.000000e+00
1
Step 676000
Ar 9.968873e-01 0.000000e+00 0.000000e+00
1
Step 677000
Ar 9.802433e-01 0.000000e+00 0.000000e+00
1
Step 678000
Ar 1.041979e+00 0.000000e+00 0.000000e+00
1
Step 679000
Ar 9.988963e-01 0.000000e+00 0.000000e+00
1
Step 680000
Ar 1.014468e+00 0.000000e+00 0.000000e+00
1
Step 681000
Ar 1.207115e+00 0.000000e+00 0.000000e+00
1
Step 682000
Ar 1.100100e+00 0.000000e+00 0.000000e+00
1
Step 683000
Ar 1.112166e+00 0.000000e+00 0.000000e+00
1
Step 684000
Ar 1.051202e+00 0.000000e+00 0.000000e+00
1
Step 685000
Ar 9.968514e-01 0.000000e+00 0.000000e+00
1
Step 686000
Ar 1.111624e+00 0.000000e+00 0.000000e+00
1
Step 687000
Ar 9.607654e-01 0.000000e+00 0.000000e+00
1
Step 688000
Ar 9.772568e-01 0.000000e+00 0.000000e+00
1
Step 689000
Ar 1.031798e+00 0.000000e+00 0.000000e+00
1
Step 690000
Ar 1.024856e+00 0.000000e+00 0.000000e+00
1
Step 691000
Ar 9.640652e-01 0.000000e+00 0.000000e+00
1
Step 692000
Ar 9.827084e-01 0.000000e+00 0.000000e+00
1
Step 693000
Ar 9.754296e-01 0.000000e+00 0.000000e+00
1
Step 694000
Ar 1.105204e+00 0.000000e+00 0.000000e+00
1
Step 695000
Ar 1.061868e+00 0.000000e+00 0.000000e+00
1
Step 696000
Ar 9.958373e-01 0.000000e+00 0.000000e+00
1
Step 697000
Ar 1.087291e+00 0.000000e+00 0.000000e+00
1
Step 698000
Ar 1.058116e+00 0.000000e+00 0.000000e+00
1
Step 699000
Ar 9.738622e-01 0.000000e+00 0.000000e+00
1
Step 700000
Ar 1.050305e+00 0.000000e+00 0.000000e+00
1
Step 701000
Ar 9.748893e-01 0.000000e+00 0.000000e+00
1
Step 702000
Ar 1.027977e+00 0.000000e+00 0.000000e+00
1
Step 703000
Ar 1.110245e+00 0.000000e+00 0.000000e+00
1
Step 704000
Ar 1.139143e+00 0.000000e+00 0.000000e+00
1
Step 705000
Ar 1.136416e+00 0.000000e+00 0.000000e+00
1
Step 706000
Ar 1.059032e+00 0.000000e+00 0.000000e+00
1
Step 707000
Ar 1.286865e+00 0.000000e+00 0.000000e+00
1
Step 708000
Ar 1.071798e+00 0.000000e+00 0.000000e+00
1
Step 709000
Ar 1.134853e+00 0.000000e+00 0.000000e+00
1
Step 710000
Ar 1.185581e+00 0.000000e+00 0.000000e+00
1
Step 711000
Ar 1.005639e+00 0.000000e+00 0.000000e+00
1
Step 712000
Ar 9.474988e-01 0.000000e+00 0.000000e+00
1
Step 713000
Ar 1.087275e+00 0.000000e+00 0.000000e+00
1
Step 714000
Ar 1.006850e+00 0.000000e+00 0.000000e+00
1
Step 715000
Ar 9.852375e-01 0.000000e+00 0.000000e+00
1
Step 716000
Ar 1.218360e+00 0.000000e+00 0.000000e+00
1
Step 717000
Ar 1.094260e+00 0.000000e+00 0.000000e+00
1
Step 718000
Ar 1.028086e+00 0.000000e+00 0.000000e+00
1
Step 719000
Ar 1.122673e+00 0.000000e+00 0.000000e+00
1
Step 720000
Ar 9.961793e-01 0.000000e+00 0.000000e+00
1
Step 721000
Ar 9.884081e-01 0.000000e+00 0.000000e+00
1
Step 722000
Ar 9.563278e-01 0.000000e+00 0.000000e+00
1
Step 723000
Ar 1.001272e+00 0.000000e+00 0.000000e+00
1
Step 724000
Ar 1.069353e+00 0.000000e+00 0.000000e+00
1
Step 725000
Ar 1.012545e+00 0.000000e+00 0.000000e+00
1
Step 726000
Ar 9.781668e-01 0.000000e+00 0.000000e+00
1
Step 727000
Ar 9.683066e-01 0.000000e+00 0.000000e+00
1
Step 728000
Ar 1.007323e+00 0.000000e+00 0.000000e+00
1
Step 729000
Ar 1.125236e+00 0.000000e+00 0.000000e+00
1
Step 730000
Ar 1.112529e+00 0.000000e+00 0.000000e+00
1
Step 731000
Ar 1.081356e+00 0.000000e+00 0.000000e+00
1
Step 732000
Ar 1.025251e+00 0.000000e+00 0.000000e+00
1
Step 733000
Ar 1.126000e+00 0.000000e+00 0.000000e+00
1
Step 734000
Ar 9.950383e-01 0.000000e+00 0.000000e+00
1
Step 735000
Ar 1.139950e+00 0.000000e+00 0.000000e+00
1
Step 736000
Ar 1.073620e+00 0.000000e+00 0.000000e+00
1
Step 737000
Ar 9.989842e-01 0.000000e+00 0.000000e+00
1
Step 738000
Ar 1.004776e+00 0.000000e+00 0.000000e+00
1
Step 739000
Ar 1.038171e+00 0.000000e+00 0.000000e+00
1
Step 740000
Ar 1.031812e+00 0.000000e+00 0.000000e+00
1
Step 741000
Ar 1.070215e+00 0.000000e+00 0.000000e+00
1
Step 742000
Ar 1.004546e+00 0.000000e+00 0.000000e+00
1
Step 743000
Ar 1.122786e+00 0.000000e+00 0.000000e+00
1
Step 744000
Ar 1.086258e+00 0.000000e+00 0.000000e+00
1
Step 745000
Ar 1.092114e+00 0.000000e+00 0.000000e+00
1
Step 746000
Ar 1.052973e+00 0.000000e+00 0.000000e+00
1
Step 747000
Ar 1.127618e+00 0.000000e+00 0.000000e+00
1
Step 748000
Ar 1.026455e+00 0.000000e+00 0.000000e+00
1
Step 749000
Ar 9.728009e-01 0.000000e+00 0.000000e+00
1
Step 750000
Ar 1.061901e+00 0.000000e+00 0.000000e+00
1
Step 751000
Ar 1.050056e+00 0.000000e+00 0.000000e+00
1
Step 752000
Ar 1.003894e+00 0.000000e+00 0.000000e+00
1
Step 753000
Ar 1.084469e+00 0.000000e+00 0.000000e+00
1
Step 754000
Ar 1.129029e+00 0.000000e+00 0.000000e+00
1
Step 755000
Ar 1.201984e+00 0.000000e+00 0.000000e+00
1
Step 756000
Ar 9.941254e-01 0.000000e+00 0.000000e+00
1
Step 757000
Ar 1.033949e+00 0.000000e+00 0.000000e+00
1
Step 758000
Ar 1.033987e+00 0.000000e+00 0.000000e+00
1
Step 759000
Ar 1.195324e+00 0.000000e+00 0.000000e+00
1
Step 760000
Ar 1.070030e+00 0.000000e+00 0.000000e+00
1
Step 761000
Ar 1.183534e+00 0.000000e+00 0.000000e+00
1
Step 762000
Ar 1.138632e+00 0.000000e+00 0.000000e+00
1
Step 763000
Ar 9.973982e-01 0.000000e+00 0.000000e+00
1
Step 764000
Ar 1.053493e+00 0.000000e+00 0.000000e+00
1
Step 765000
Ar 1.067010e+00 0.000000e+00 0.000000e+00
1
Step 766000
Ar 1.118056e+00 0.000000e+00 0.000000e+00
1
Step 767000
Ar 1.098652e+00 0.000000e+00 0.000000e+00
1
Step 768000
Ar 1.023850e+00 0.000000e+00 0.000000e+00
1
Step 769000
Ar 1.030983e+00 0.000000e+00 0.000000e+00
1
Step 770000
Ar 1.086998e+00 0.000000e+00 0.000000e+00
1
Step 771000
Ar 9.843481e-01 0.000000e+00 0.000000e+00
1
Step 772000
Ar 1.028046e+00 0.000000e+00 0.000000e+00
1
Step 773000
Ar 1.138219e+00 0.000000e+00 0.000000e+00
1
Step 774000
Ar 1.135446e+00 0.000000e+00 0.000000e+00
1
Step 775000
Ar 1.089009e+00 0.000000e+00 0.000000e+00
1
Step 776000
Ar 1.036702e+00 0.000000e+00 0.000000e+00
1
Step 777000
Ar 1.164171e+00 0.000000e+00 0.000000e+00
1
Step 778000
Ar 1.063313e+00 0.000000e+00 0.000000e+00
1
Step 779000
Ar 1.100883e+00 0.000000e+00 0.000000e+00
1
Step 780000
Ar 9.808851e-01 0.000000e+00 0.000000e+00
1
Step 781000
Ar 1.210052e+00 0.000000e+00 0.000000e+00
1
Step 782000
Ar 1.113340e+00 0.000000e+00 0.000000e+00
1
Step 783000
Ar 1.096301e+00 0.000000e+00 0.000000e+00
1
Step 784000
Ar 1.038117e+00 0.000000e+00 0.000000e+00
1
Step 785000
Ar 1.045761e+00 0.000000e+00 0.000000e+00
1
Step 786000
Ar 9.767193e-01 0.000000e+00 0.000000e+00
1
Step 787000
Ar 1.056807e+00 0.000000e+00 0.000000e+00
1
Step 788000
Ar 1.139484e+00 0.000000e+00 0.000000e+00
1
Step 789000
Ar 1.105255e+00 0.000000e+00 0.000000e+00
1
Step 790000
Ar 9.576193e-01 0.000000e+00 0.000000e+00
1
Step 791000
Ar 9.843459e-01 0.000000e+00 0.000000e+00
1
Step 792000
Ar 1.012642e+00 0.000000e+00 0.000000e+00
1
Step 793000
Ar 1.017890e+00 0.000000e+00 0.000000e+00
1
Step 794000
Ar 1.133848e+00 0.000000e+00 0.000000e+00
1
Step 795000
Ar 1.021681e+00 0.000000e+00 0.000000e+00
1
Step 796000
Ar 9.646193e-01 0.000000e+00 0.000000e+00
1
Step 797000
Ar 1.064476e+00 0.000000e+00 0.000000e+00
1
Step 798000
Ar 9.778069e-01 0.000000e+00 0.000000e+00
1
Step 799000
Ar 1.024140e+00 0.000000e+00 0.000000e+00
1
Step 800000
Ar 9.968312e-01 0.000000e+00 0.000000e+00
1
Step 801000
Ar 9.541938e-01 0.000000e+00 0.000000e+00
1
Step 802000
Ar 1.015641e+00 0.000000e+00 0.000000e+00
1
Step 803000
Ar 1.026426e+00 0.000000e+00 0.000000e+00
1
Step 804000
Ar 1.000658e+00 0.000000e+00 0.000000e+00
1
Step 805000
Ar 9.749908e-01 0.000000e+00 0.000000e+00
1
Step 806000
Ar 1.151823e+00 0.000000e+00 0.000000e+00
1
Step 807000
Ar 1.056405e+00 0.000000e+00 0.000000e+00
1
Step 808000
Ar 9.797070e-01 0.000000e+00 0.000000e+00
1
Step 809000
Ar 1.103307e+00 0.000000e+00 0.000000e+00
1
Step 810000
Ar 1.072571e+00 0.000000e+00 0.000000e+00
1
Step 811000
Ar 9.905666e-01 0.000000e+00 0.000000e+00
1
Step 812000
Ar 9.612354e-01 0.000000e+00 0.000000e+00
1
Step 813000
Ar 9.903680e-01 0.000000e+00 0.000000e+00
1
Step 814000
Ar 1.039485e+00 0.000000e+00 0.000000e+00
1
Step 815000
Ar 1.015650e+00 0.000000e+00 0.000000e+00
1
Step 816000
Ar 1.074530e+00 0.000000e+00 0.000000e+00
1
Step 817000
Ar 9.570351e-01 0.000000e+00 0.000000e+00
1
Step 818000
Ar 9.998115e-01 0.000000e+00 0.000000e+00
1
Step 819000
Ar 1.061658e+00 0.000000e+00 0.000000e+00
1
Step 820000
Ar 1.063025e+00 0.000000e+00 0.000000e+00
1
Step 821000
Ar 1.017058e+00 0.000000e+00 0.000000e+00
1
Step 822000
Ar 1.124352e+00 0.000000e+00 0.000000e+00
1
Step 823000
Ar 9.620342e-01 0.000000e+00 0.000000e+00
1
Step 824000
Ar 1.077526e+00 0.000000e+00 0.000000e+00
1
Step 825000
Ar 9.760870e-01 0.000000e+00 0.000000e+00
1
Step 826000
Ar 1.096836e+00 0.000000e+00 0.000000e+00
1
Step 827000
Ar 1.048007e+00 0.000000e+00 0.000000e+00
1
Step 828000
Ar 1.069888e+00 0.000000e+00 0.000000e+00
1
Step 829000
Ar 1.032197e+00 0.000000e+00 0.000000e+00
1
Step 830000
Ar 1.023200e+00 0.000000e+00 0.000000e+00
1
Step 831000
Ar 1.118031e+00 0.000000e+00 0.000000e+00
1
Step 832000
Ar 1.048455e+00 0.000000e+00 0.000000e+00
1
Step 833000
Ar 1.183073e+00 0.000000e+00 0.000000e+00
1
Step 834000
Ar 1.057923e+00 0.000000e+00 0.000000e+00
1
Step 835000
Ar 9.644435e-01 0.000000e+00 0.000000e+00
1
Step 836000
Ar 1.017029e+00 0.000000e+00 0.000000e+00
1
Step 837000
Ar 1.102961e+00 0.000000e+00 0.000000e+00
1
Step 838000
Ar 9.685040e-01 0.000000e+00 0.000000e+00
1
Step 839000
Ar 9.746930e-01 0.000000e+00 0.000000e+00
1
Step 840000
Ar 1.017837e+00 0.000000e+00 0.000000e+00
1
Step 841000
Ar 1.068003e+00 0.000000e+00 0.000000e+00
1
Step 842000
Ar 1.072567e+00 0.000000e+00 0.000000e+00
1
Step 843000
Ar 1.010723e+00 0.000000e+00 0.000000e+00
1
Step 844000
Ar 1.027537e+00 0.000000e+00 0.000000e+00
1
Step 845000
Ar 1.003925e+00 0.000000e+00 0.000000e+00
1
Step 846000
Ar 1.167795e+00 0.000000e+00 0.000000e+00
1
Step 847000
Ar 1.073173e+00 0.000000e+00 0.000000e+00
1
Step 848000
Ar 9.940422e-01 0.000000e+00 0.000000e+00
1
Step 849000
Ar 1.032039e+00 0.000000e+00 0.000000e+00
1
Step 850000
Ar 1.112712e+00 0.000000e+00 0.000000e+00
1
Step 851000
Ar 1.263437e+00 0.000000e+00 0.000000e+00
1
Step 852000
Ar 9.571488e-01 0.000000e+00 0.000000e+00
1
Step 853000
Ar 1.048827e+00 0.000000e+00 0.000000e+00
1
Step 854000
Ar 1.018696e+00 0.000000e+00 0.000000e+00
1
Step 855000
Ar 9.881217e-01 0.000000e+00 0.000000e+00
1
Step 856000
Ar 1.105548e+00 0.000000e+00 0.000000e+00
1
Step 857000
Ar 1.045349e+00 0.000000e+00 0.000000e+00
1
Step 858000
Ar 1.164863e+00 0.000000e+00 0.000000e+00
1
Step 859000
Ar 1.000081e+00 0.000000e+00 0.000000e+00
1
Step 860000
Ar 1.015371e+00 0.000000e+00 0.000000e+00
1
Step 861000
Ar 9.916715e-01 0.000000e+00 0.000000e+00
1
Step 862000
Ar 1.000163e+00 0.000000e+00 0.000000e+00
1
Step 863000
Ar 1.077585e+00 0.000000e+00 0.000000e+00
1
Step 864000
Ar 9.805754e-01 0.000000e+00 0.000000e+00
1
Step 865000
Ar 1.021270e+00 0.000000e+00 0.000000e+00
1
Step 866000
Ar 1.080156e+00 0.000000e+00 0.000000e+00
1
Step 867000
Ar 1.050041e+00 0.000000e+00 0.000000e+00
1
Step 868000
Ar 1.074925e+00 0.000000e+00 0.000000e+00
1
Step 869000
Ar 1.004553e+00 0.000000e+00 0.000000e+00
1
Step 870000
Ar 1.094611e+00 0.000000e+00 0.000000e+00
1
Step 871000
Ar 1.097017e+00 0.000000e+00 0.000000e+00
1
Step 872000
Ar 1.039657e+00 0.000000e+00 0.000000e+00
1
Step 873000
Ar 1.020322e+00 0.000000e+00 0.000000e+00
1
Step 874000
Ar 1.001587e+00 0.000000e+00 0.000000e+00
1
Step 875000
Ar 9.981396e-01 0.000000e+00 0.000000e+00
1
Step 876000
Ar 1.124447e+00 0.000000e+00 0.000000e+00
1
Step 877000
Ar 1.105284e+00 0.000000e+00 0.000000e+00
1
Step 878000
Ar 1.027903e+00 0.000000e+00 0.000000e+00
1
Step 879000
Ar 1.059902e+00 0.000000e+00 0.000000e+00
1
Step 880000
Ar 9.661994e-01 0.000000e+00 0.000000e+00
1
Step 881000
Ar 1.065168e+00 0.000000e+00 0.000000e+00
1
Step 882000
Ar 1.045952e+00 0.000000e+00 0.000000e+00
1
Step 883000
Ar 1.180921e+00 0.000000e+00 0.000000e+00
1
Step 884000
Ar 1.091304e+00 0.000000e+00 0.000000e+00
1
Step 885000
Ar 1.064494e+00 0.000000e+00 0.000000e+00
1
Step 886000
Ar 1.007988e+00 0.000000e+00 0.000000e+00
1
Step 887000
Ar 1.139787e+00 0.000000e+00 0.000000e+00
1
Step 888000
Ar 1.251363e+00 0.000000e+00 0.000000e+00
1
Step 889000
Ar 1.085066e+00 0.000000e+00 0.000000e+00
1
Step 890000
Ar 1.068224e+00 0.000000e+00 0.000000e+00
1
Step 891000
Ar 9.517711e-01 0.000000e+00 0.000000e+00
1
Step 892000
Ar 1.005763e+00 0.000000e+00 0.000000e+00
1
Step 893000
Ar 9.834265e-01 0.000000e+00 0.000000e+00
1
Step 894000
Ar 1.129621e+00 0.000000e+00 0.000000e+00
1
Step 895000
Ar 1.012947e+00 0.000000e+00 0.000000e+00
1
Step 896000
Ar 1.059861e+00 0.000000e+00 0.000000e+00
1
Step 897000
Ar 1.160153e+00 0.000000e+00 0.000000e+00
1
Step 898000
Ar 9.895912e-01 0.000000e+00 0.000000e+00
1
Step 899000
Ar 9.535386e-01 0.000000e+00 0.000000e+00
1
Step 900000
Ar 1.002290e+00 0.000000e+00 0.000000e+00
1
Step 901000
Ar 9.954880e-01 0.000000e+00 0.000000e+00
1
Step 902000
Ar 1.090268e+00 0.000000e+00 0.000000e+00
1
Step 903000
Ar 1.135185e+00 0.000000e+00 0.000000e+00
1
Step 904000
Ar 9.667192e-01 0.000000e+00 0.000000e+00
1
Step 905000
Ar 1.210803e+00 0.000000e+00 0.000000e+00
1
Step 906000
Ar 1.009031e+00 0.000000e+00 0.000000e+00
1
Step 907000
Ar 1.016942e+00 0.000000e+00 0.000000e+00
1
Step 908000
Ar 9.718684e-01 0.000000e+00 0.000000e+00
1
Step 909000
Ar 1.049928e+00 0.000000e+00 0.000000e+00
1
Step 910000
Ar 1.175340e+00 0.000000e+00 0.000000e+00
1
Step 911000
Ar 9.662037e-01 0.000000e+00 0.000000e+00
1
Step 912000
Ar 9.781473e-01 0.000000e+00 0.000000e+00
1
Step 913000
Ar 1.008693e+00 0.000000e+00 0.000000e+00
1
Step 914000
Ar 1.076177e+00 0.000000e+00 0.000000e+00
1
Step 915000
Ar 1.131082e+00 0.000000e+00 0.000000e+00
1
Step 916000
Ar 9.680009e-01 0.000000e+00 0.000000e+00
1
Step 917000
Ar 1.243007e+00 0.000000e+00 0.000000e+00
1
Step 918000
Ar 9.526677e-01 0.000000e+00 0.000000e+00
1
Step 919000
Ar 1.029835e+00 0.000000e+00 0.000000e+00
1
Step 920000
Ar 1.064069e+00 0.000000e+00 0.000000e+00
1
Step 921000
Ar 1.030910e+00 0.000000e+00 0.000000e+00
1
Step 922000
Ar 9.957640e-01 0.000000e+00 0.000000e+00
1
Step 923000
Ar 9.681745e-01 0.000000e+00 0.000000e+00
1
Step 924000
Ar 1.155333e+00 0.000000e+00 0.000000e+00
1
Step 925000
Ar 1.156132e+00 0.000000e+00 0.000000e+00
1
Step 926000
Ar 1.217731e+00 0.000000e+00 0.000000e+00
1
Step 927000
Ar 1.066107e+00 0.000000e+00 0.000000e+00
1
Step 928000
Ar 9.728146e-01 0.000000e+00 0.000000e+00
1
Step 929000
Ar 9.563644e-01 0.000000e+00 0.000000e+00
1
Step 930000
Ar 1.039229e+00 0.000000e+00 0.000000e+00
1
Step 931000
Ar 9.936615e-01 0.000000e+00 0.000000e+00
1
Step 932000
Ar 1.100766e+00 0.000000e+00 0.000000e+00
1
Step 933000
Ar 1.107585e+00 0.000000e+00 0.000000e+00
1
Step 934000
Ar 1.050965e+00 0.000000e+00 0.000000e+00
1
Step 935000
Ar 9.793278e-01 0.000000e+00 0.000000e+00
1
Step 936000
Ar 9.992214e-01 0.000000e+00 0.000000e+00
1
Step 937000
Ar 9.476106e-01 0.000000e+00 0.000000e+00
1
Step 938000
Ar 1.006550e+00 0.000000e+00 0.000000e+00
1
Step 939000
Ar 1.083290e+00 0.000000e+00 0.000000e+00
1
Step 940000
Ar 1.003707e+00 0.000000e+00 0.000000e+00
1
Step 941000
Ar 9.572064e-01 0.000000e+00 0.000000e+00
1
Step 942000
Ar 9.798256e-01 0.000000e+00 0.000000e+00
1
Step 943000
Ar 1.121164e+00 0.000000e+00 0.000000e+00
1
Step 944000
Ar 1.083601e+00 0.000000e+00 0.000000e+00
1
Step 945000
Ar 1.175957e+00 0.000000e+00 0.000000e+00
1
Step 946000
Ar 1.050421e+00 0.000000e+00 0.000000e+00
1
Step 947000
Ar 1.050159e+00 0.000000e+00 0.000000e+00
1
Step 948000
Ar 9.832237e-01 0.000000e+00 0.000000e+00
1
Step 949000
Ar 9.518382e-01 0.000000e+00 0.000000e+00
1
Step 950000
Ar 1.192507e+00 0.000000e+00 0.000000e+00
1
Step 951000
Ar 1.004461e+00 0.000000e+00 0.000000e+00
1
Step 952000
Ar 1.108935e+00 0.000000e+00 0.000000e+00
1
Step 953000
Ar 1.064815e+00 0.000000e+00 0.000000e+00
1
Step 954000
Ar 9.798744e-01 0.000000e+00 0.000000e+00
1
Step 955000
Ar 1.132002e+00 0.000000e+00 0.000000e+00
1
Step 956000
Ar 1.053424e+00 0.000000e+00 0.000000e+00
1
Step 957000
Ar 1.222904e+00 0.000000e+00 0.000000e+00
1
Step 958000
Ar 1.028062e+00 0.000000e+00 0.000000e+00
1
Step 959000
Ar 1.074514e+00 0.000000e+00 0.000000e+00
1
Step 960000
Ar 1.027837e+00 0.000000e+00 0.000000e+00
1
Step 961000
Ar 9.905887e-01 0.000000e+00 0.000000e+00
1
Step 962000
Ar 1.061923e+00 0.000000e+00 0.000000e+00
1
Step 963000
Ar 1.047019e+00 0.000000e+00 0.000000e+00
1
Step 964000
Ar 1.015699e+00 0.000000e+00 0.000000e+00
1
Step 965000
Ar 1.002444e+00 0.000000e+00 0.000000e+00
1
Step 966000
Ar 1.016652e+00 0.000000e+00 0.000000e+00
1
Step 967000
Ar 1.149471e+00 0.000000e+00 0.000000e+00
1
Step 968000
Ar 1.017526e+00 0.000000e+00 0.000000e+00
1
Step 969000
Ar 1.061416e+00 0.000000e+00 0.000000e+00
1
Step 970000
Ar 1.245332e+00 0.000000e+00 0.000000e+00
1
Step 971000
Ar 9.556911e-01 0.000000e+00 0.000000e+00
1
Step 972000
Ar 9.455268e-01 0.000000e+00 0.000000e+00
1
Step 973000
Ar 1.170298e+00 0.000000e+00 0.000000e+00
1
Step 974000
Ar 1.035018e+00 0.000000e+00 0.000000e+00
1
Step 975000
Ar 1.023121e+00 0.000000e+00 0.000000e+00
1
Step 976000
Ar 1.000051e+00 0.000000e+00 0.000000e+00
1
Step 977000
Ar 9.622829e-01 0.000000e+00 0.000000e+00
1
Step 978000
Ar 1.091621e+00 0.000000e+00 0.000000e+00
1
Step 979000
Ar 1.074741e+00 0.000000e+00 0.000000e+00
1
Step 980000
Ar 1.023643e+00 0.000000e+00 0.000000e+00
1
Step 981000
Ar 9.473416e-01 0.000000e+00 0.000000e+00
1
Step 982000
Ar 9.952822e-01 0.000000e+00 0.000000e+00
1
Step 983000
Ar 1.133166e+00 0.000000e+00 0.000000e+00
1
Step 984000
Ar 9.773550e-01 0.000000e+00 0.000000e+00
1
Step 985000
Ar 1.050783e+00 0.000000e+00 0.000000e+00
1
Step 986000
Ar 9.567027e-01 0.000000e+00 0.000000e+00
1
Step 987000
Ar 1.038641e+00 0.000000e+00 0.000000e+00
1
Step 988000
Ar 1.184257e+00 0.000000e+00 0.000000e+00
1
Step 989000
Ar 9.643233e-01 0.000000e+00 0.000000e+00
1
Step 990000
Ar 1.082629e+00 0.000000e+00 0.000000e+00
1
Step 991000
Ar 1.075743e+00 0.000000e+00 0.000000e+00
1
Step 992000
Ar 1.058640e+00 0.000000e+00 0.000000e+00
1
Step 993000
Ar 1.095443e+00 0.000000e+00 0.000000e+00
1
Step 994000
Ar 1.087845e+00 0.000000e+00 0.000000e+00
1
Step 995000
Ar 1.000805e+00 0.000000e+00 0.000000e+00
1
Step 996000
Ar 1.020875e+00 0.000000e+00 0.000000e+00
1
Step 997000
Ar 1.090598e+00 0.000000e+00 0.000000e+00
1
Step 998000
Ar 1.024725e+00 0.000000e+00 0.000000e+00
1
Step 999000
Ar 1.058355e+00 0.000000e+00 0.000000e+00
