1
Step 120000
Ar 7.830130e-01 0.000000e+00 0.000000e+00
1
Step 121000
Ar 9.657010e-01 0.000000e+00 0.000000e+00
1
Step 122000
Ar 9.920914e-01 0.000000e+00 0.000000e+00
1
Step 123000
Ar 8.563782e-01 0.000000e+00 0.000000e+00
1
Step 124000
Ar 9.875973e-01 0.000000e+00 0.000000e+00
1
Step 125000
Ar 1.144358e+00 0.000000e+00 0.000000e+00
1
Step 126000
Ar 9.469497e-01 0.000000e+00 0.000000e+00
1
Step 127000
Ar 9.578084e-01 0.000000e+00 0.000000e+00
1
Step 128000
Ar 8.962559e-01 0.000000e+00 0.000000e+00
1
Step 129000
Ar 1.107725e+00 0.000000e+00 0.000000e+00
1
Step 130000
Ar 7.426353e-01 0.000000e+00 0.000000e+00
1
Step 131000
Ar 8.131483e-01 0.000000e+00 0.000000e+00
1
Step 132000
Ar 8.299844e-01 0.000000e+00 0.000000e+00
1
Step 133000
Ar 1.074937e+00 0.000000e+00 0.000000e+00
1
Step 134000
Ar 9.614581e-01 0.000000e+00 0.000000e+00
1
Step 135000
Ar 9.516554e-01 0.000000e+00 0.000000e+00
1
Step 136000
Ar 1.056054e+00 0.000000e+00 0.000000e+00
1
Step 137000
Ar 9.596143e-01 0.000000e+00 0.000000e+00
1
Step 138000
Ar 8.074484e-01 0.000000e+00 0.000000e+00
1
Step 139000
Ar 9.063350e-01 0.000000e+00 0.000000e+00
1
Step 140000
Ar 6.685363e-01 0.000000e+00 0.000000e+00
1
Step 141000
Ar 1.085020e+00 0.000000e+00 0.000000e+00
1
Step 142000
Ar 1.064898e+00 0.000000e+00 0.000000e+00
1
Step 143000
Ar 8.588179e-01 0.000000e+00 0.000000e+00
1
Step 144000
Ar 1.027733e+00 0.000000e+00 0.000000e+00
1
Step 145000
Ar 9.417689e-01 0.000000e+00 0.000000e+00
1
Step 146000
Ar 9.789163e-01 0.000000e+00 0.000000e+00
1
Step 147000
Ar 8.601063e-01 0.000000e+00 0.000000e+00
1
Step 148000
Ar 7.393534e-01 0.000000e+00 0.000000e+00
1
Step 149000
Ar 1.028224e+00 0.000000e+00 0.000000e+00
1
Step 150000
Ar 8.595277e-01 0.000000e+00 0.000000e+00
1
Step 151000
Ar 9.148839e-01 0.000000e+00 0.000000e+00
1
Step 152000
Ar 1.080782e+00 0.000000e+00 0.000000e+00
1
Step 153000
Ar 9.032701e-01 0.000000e+00 0.000000e+00
1
Step 154000
Ar 1.100200e+00 0.000000e+00 0.000000e+00
1
Step 155000
Ar 9.523459e-01 0.000000e+00 0.000000e+00
1
Step 156000
Ar 1.060639e+00 0.000000e+00 0.000000e+00
1
Step 157000
Ar 9.152502e-01 0.000000e+00 0.000000e+00
1
Step 158000
Ar 1.130742e+00 0.000000e+00 0.000000e+00
1
Step 159000
Ar 1.045300e+00 0.000000e+00 0.000000e+00
1
Step 160000
Ar 1.006886e+00 0.000000e+00 0.000000e+00
1
Step 161000
Ar 1.047805e+00 0.000000e+00 0.000000e+00
1
Step 162000
Ar 1.042790e+00 0.000000e+00 0.000000e+00
1
Step 163000
Ar 1.036351e+00 0.000000e+00 0.000000e+00
1
Step 164000
Ar 9.873042e-01 0.000000e+00 0.000000e+00
1
Step 165000
Ar 8.449398e-01 0.000000e+00 0.000000e+00
1
Step 166000
Ar 1.052170e+00 0.000000e+00 0.000000e+00
1
Step 167000
Ar 9.618833e-01 0.000000e+00 0.000000e+00
1
Step 168000
Ar 9.207837e-01 0.000000e+00 0.000000e+00
1
Step 169000
Ar 9.482392e-01 0.000000e+00 0.000000e+00
1
Step 170000
Ar 8.298699e-01 0.000000e+00 0.000000e+00
1
Step 171000
Ar 9.263322e-01 0.000000e+00 0.000000e+00
1
Step 172000
Ar 1.111932e+00 0.000000e+00 0.000000e+00
1
Step 173000
Ar 9.581505e-01 0.000000e+00 0.000000e+00
1
Step 174000
Ar 1.007265e+00 0.000000e+00 0.000000e+00
1
Step 175000
Ar 7.898644e-01 0.000000e+00 0.000000e+00
1
Step 176000
Ar 1.071163e+00 0.000000e+00 0.000000e+00
1
Step 177000
Ar 9.414807e-01 0.000000e+00 0.000000e+00
1
Step 178000
Ar 1.174465e+00 0.000000e+00 0.000000e+00
1
Step 179000
Ar 9.071522e-01 0.000000e+00 0.000000e+00
1
Step 180000
Ar 1.164025e+00 0.000000e+00 0.000000e+00
1
Step 181000
Ar 1.088300e+00 0.000000e+00 0.000000e+00
1
Step 182000
Ar 1.029981e+00 0.000000e+00 0.000000e+00
1
Step 183000
Ar 9.639087e-01 0.000000e+00 0.000000e+00
1
Step 184000
Ar 1.073599e+00 0.000000e+00 0.000000e+00
1
Step 185000
Ar 9.848775e-01 0.000000e+00 0.000000e+00
1
Step 186000
Ar 1.033159e+00 0.000000e+00 0.000000e+00
1
Step 187000
Ar 8.783906e-01 0.000000e+00 0.000000e+00
1
Step 188000
Ar 7.405905e-01 0.000000e+00 0.000000e+00
1
Step 189000
Ar 1.132952e+00 0.000000e+00 0.000000e+00
1
Step 190000
Ar 9.678339e-01 0.000000e+00 0.000000e+00
1
Step 191000
Ar 1.075263e+00 0.000000e+00 0.000000e+00
1
Step 192000
Ar 1.140045e+00 0.000000e+00 0.000000e+00
1
Step 193000
Ar 1.079586e+00 0.000000e+00 0.000000e+00
1
Step 194000
Ar 8.749444e-01 0.000000e+00 0.000000e+00
1
Step 195000
Ar 9.543025e-01 0.000000e+00 0.000000e+00
1
Step 196000
Ar 9.674653e-01 0.000000e+00 0.000000e+00
1
Step 197000
Ar 1.066034e+00 0.000000e+00 0.000000e+00
1
Step 198000
Ar 9.709922e-01 0.000000e+00 0.000000e+00
1
Step 199000
Ar 7.987887e-01 0.000000e+00 0.000000e+00
1
Step 200000
Ar 1.011133e+00 0.000000e+00 0.000000e+00
1
Step 201000
Ar 8.952162e-01 0.000000e+00 0.000000e+00
1
Step 202000
Ar 8.933195e-01 0.000000e+00 0.000000e+00
1
Step 203000
Ar 1.052065e+00 0.000000e+00 0.000000e+00
1
Step 204000
Ar 1.067572e+00 0.000000e+00 0.000000e+00
1
Step 205000
Ar 1.181596e+00 0.000000e+00 0.000000e+00
1
Step 206000
Ar 1.015348e+00 0.000000e+00 0.000000e+00
1
Step 207000
Ar 9.971324e-01 0.000000e+00 0.000000e+00
1
Step 208000
Ar 1.073468e+00 0.000000e+00 0.000000e+00
1
Step 209000
Ar 9.315544e-01 0.000000e+00 0.000000e+00
1
Step 210000
Ar 9.614183e-01 0.000000e+00 0.000000e+00
1
Step 211000
Ar 9.919484e-01 0.000000e+00 0.000000e+00
1
Step 212000
Ar 1.009541e+00 0.000000e+00 0.000000e+00
1
Step 213000
Ar 7.916020e-01 0.000000e+00 0.000000e+00
1
Step 214000
Ar 1.072269e+00 0.000000e+00 0.000000e+00
1
Step 215000
Ar 1.059029e+00 0.000000e+00 0.000000e+00
1
Step 216000
Ar 1.108830e+00 0.000000e+00 0.000000e+00
1
Step 217000
Ar 1.052560e+00 0.000000e+00 0.000000e+00
1
Step 218000
Ar 9.738407e-01 0.000000e+00 0.000000e+00
1
Step 219000
Ar 9.569622e-01 0.000000e+00 0.000000e+00
1
Step 220000
Ar 1.014356e+00 0.000000e+00 0.000000e+00
1
Step 221000
Ar 1.116580e+00 0.000000e+00 0.000000e+00
1
Step 222000
Ar 9.565207e-01 0.000000e+00 0.000000e+00
1
Step 223000
Ar 8.779608e-01 0.000000e+00 0.000000e+00
1
Step 224000
Ar 7.896658e-01 0.000000e+00 0.000000e+00
1
Step 225000
Ar 9.542356e-01 0.000000e+00 0.000000e+00
1
Step 226000
Ar 9.944548e-01 0.000000e+00 0.000000e+00
1
Step 227000
Ar 1.050670e+00 0.000000e+00 0.000000e+00
1
Step 228000
Ar 1.091180e+00 0.000000e+00 0.000000e+00
1
Step 229000
Ar 1.009043e+00 0.000000e+00 0.000000e+00
1
Step 230000
Ar 9.981988e-01 0.000000e+00 0.000000e+00
1
Step 231000
Ar 1.082654e+00 0.000000e+00 0.000000e+00
1
Step 232000
Ar 1.022238e+00 0.000000e+00 0.000000e+00
1
Step 233000
Ar 1.008459e+00 0.000000e+00 0.000000e+00
1
Step 234000
Ar 9.312064e-01 0.000000e+00 0.000000e+00
1
Step 235000
Ar 9.277750e-01 0.000000e+00 0.000000e+00
1
Step 236000
Ar 9.385985e-01 0.000000e+00 0.000000e+00
1
Step 237000
Ar 1.019509e+00 0.000000e+00 0.000000e+00
1
Step 238000
Ar 9.085114e-01 0.000000e+00 0.000000e+00
1
Step 239000
Ar 1.156372e+00 0.000000e+00 0.000000e+00
1
Step 240000
Ar 9.254085e-01 0.000000e+00 0.000000e+00
1
Step 241000
Ar 8.553281e-01 0.000000e+00 0.000000e+00
1
Step 242000
Ar 9.847567e-01 0.000000e+00 0.000000e+00
1
Step 243000
Ar 9.689013e-01 0.000000e+00 0.000000e+00
1
Step 244000
Ar 9.493264e-01 0.000000e+00 0.000000e+00
1
Step 245000
Ar 1.184091e+00 0.000000e+00 0.000000e+00
1
Step 246000
Ar 1.133424e+00 0.000000e+00 0.000000e+00
1
Step 247000
Ar 1.132722e+00 0.000000e+00 0.000000e+00
1
Step 248000
Ar 1.002718e+00 0.000000e+00 0.000000e+00
1
Step 249000
Ar 7.944495e-01 0.000000e+00 0.000000e+00
1
Step 250000
Ar 1.121403e+00 0.000000e+00 0.000000e+00
1
Step 251000
Ar 1.156146e+00 0.000000e+00 0.000000e+00
1
Step 252000
Ar 9.405235e-01 0.000000e+00 0.000000e+00
1
Step 253000
Ar 8.850630e-01 0.000000e+00 0.000000e+00
1
Step 254000
Ar 8.739064e-01 0.000000e+00 0.000000e+00
1
Step 255000
Ar 8.462597e-01 0.000000e+00 0.000000e+00
1
Step 256000
Ar 8.191723e-01 0.000000e+00 0.000000e+00
1
Step 257000
Ar 9.315798e-01 0.000000e+00 0.000000e+00
1
Step 258000
Ar 7.291416e-01 0.000000e+00 0.000000e+00
1
Step 259000
Ar 1.171412e+00 0.000000e+00 0.000000e+00
1
Step 260000
Ar 9.392635e-01 0.000000e+00 0.000000e+00
1
Step 261000
Ar 7.817459e-01 0.000000e+00 0.000000e+00
1
Step 262000
Ar 1.002680e+00 0.000000e+00 0.000000e+00
1
Step 263000
Ar 9.436951e-01 0.000000e+00 0.000000e+00
1
Step 264000
Ar 1.012543e+00 0.000000e+00 0.000000e+00
1
Step 265000
Ar 1.099666e+00 0.000000e+00 0.000000e+00
1
Step 266000
Ar 1.043949e+00 0.000000e+00 0.000000e+00
1
Step 267000
Ar 8.604240e-01 0.000000e+00 0.000000e+00
1
Step 268000
Ar 1.014879e+00 0.000000e+00 0.000000e+00
1
Step 269000
Ar 1.109005e+00 0.000000e+00 0.000000e+00
1
Step 270000
Ar 9.092423e-01 0.000000e+00 0.000000e+00
1
Step 271000
Ar 9.533089e-01 0.000000e+00 0.000000e+00
1
Step 272000
Ar 8.299368e-01 0.000000e+00 0.000000e+00
1
Step 273000
Ar 9.989065e-01 0.000000e+00 0.000000e+00
1
Step 274000
Ar 1.080666e+00 0.000000e+00 0.000000e+00
1
Step 275000
Ar 1.173458e+00 0.000000e+00 0.000000e+00
1
Step 276000
Ar 1.095517e+00 0.000000e+00 0.000000e+00
1
Step 277000
Ar 1.069722e+00 0.000000e+00 0.000000e+00
1
Step 278000
Ar 9.592908e-01 0.000000e+00 0.000000e+00
1
Step 279000
Ar 7.685002e-01 0.000000e+00 0.000000e+00
1
Step 280000
Ar 9.290348e-01 0.000000e+00 0.000000e+00
1
Step 281000
Ar 1.150103e+00 0.000000e+00 0.000000e+00
1
Step 282000
Ar 9.559782e-01 0.000000e+00 0.000000e+00
1
Step 283000
Ar 1.036041e+00 0.000000e+00 0.000000e+00
1
Step 284000
Ar 8.989807e-01 0.000000e+00 0.000000e+00
1
Step 285000
Ar 9.317554e-01 0.000000e+00 0.000000e+00
1
Step 286000
Ar 1.107651e+00 0.000000e+00 0.000000e+00
1
Step 287000
Ar 9.613409e-01 0.000000e+00 0.000000e+00
1
Step 288000
Ar 1.105945e+00 0.000000e+00 0.000000e+00
1
Step 289000
Ar 1.050745e+00 0.000000e+00 0.000000e+00
1
Step 290000
Ar 1.090179e+00 0.000000e+00 0.000000e+00
1
Step 291000
Ar 8.012785e-01 0.000000e+00 0.000000e+00
1
Step 292000
Ar 9.094566e-01 0.000000e+00 0.000000e+00
1
Step 293000
Ar 9.503830e-01 0.000000e+00 0.000000e+00
1
Step 294000
Ar 1.050812e+00 0.000000e+00 0.000000e+00
1
Step 295000
Ar 9.256808e-01 0.000000e+00 0.000000e+00
1
Step 296000
Ar 1.189888e+00 0.000000e+00 0.000000e+00
1
Step 297000
Ar 1.042955e+00 0.000000e+00 0.000000e+00
1
Step 298000
Ar 1.115684e+00 0.000000e+00 0.000000e+00
1
Step 299000
Ar 9.843805e-01 0.000000e+00 0.000000e+00
1
Step 300000
Ar 9.846862e-01 0.000000e+00 0.000000e+00
1
Step 301000
Ar 8.225351e-01 0.000000e+00 0.000000e+00
1
Step 302000
Ar 9.659147e-01 0.000000e+00 0.000000e+00
1
Step 303000
Ar 1.033665e+00 0.000000e+00 0.000000e+00
1
Step 304000
Ar 1.014459e+00 0.000000e+00 0.000000e+00
1
Step 305000
Ar 8.359840e-01 0.000000e+00 0.000000e+00
1
Step 306000
Ar 1.147257e+00 0.000000e+00 0.000000e+00
1
Step 307000
Ar 1.004864e+00 0.000000e+00 0.000000e+00
1
Step 308000
Ar 9.699799e-01 0.000000e+00 0.000000e+00
1
Step 309000
Ar 1.085615e+00 0.000000e+00 0.000000e+00
1
Step 310000
Ar 8.995602e-01 0.000000e+00 0.000000e+00
1
Step 311000
Ar 1.058493e+00 0.000000e+00 0.000000e+00
1
Step 312000
Ar 8.877671e-01 0.000000e+00 0.000000e+00
1
Step 313000
Ar 8.689718e-01 0.000000e+00 0.000000e+00
1
Step 314000
Ar 1.045899e+00 0.000000e+00 0.000000e+00
1
Step 315000
Ar 8.915504e-01 0.000000e+00 0.000000e+00
1
Step 316000
Ar 9.064204e-01 0.000000e+00 0.000000e+00
1
Step 317000
Ar 8.046098e-01 0.000000e+00 0.000000e+00
1
Step 318000
Ar 1.101163e+00 0.000000e+00 0.000000e+00
1
Step 319000
Ar 1.091342e+00 0.000000e+00 0.000000e+00
1
Step 320000
Ar 1.022155e+00 0.000000e+00 0.000000e+00
1
Step 321000
Ar 8.793530e-01 0.000000e+00 0.000000e+00
1
Step 322000
Ar 9.730490e-01 0.000000e+00 0.000000e+00
1
Step 323000
Ar 1.008994e+00 0.000000e+00 0.000000e+00
1
Step 324000
Ar 9.024994e-01 0.000000e+00 0.000000e+00
1
Step 325000
Ar 1.104964e+00 0.000000e+00 0.000000e+00
1
Step 326000
Ar 8.831564e-01 0.000000e+00 0.000000e+00
1
Step 327000
Ar 1.164498e+00 0.000000e+00 0.000000e+00
1
Step 328000
Ar 8.964673e-01 0.000000e+00 0.000000e+00
1
Step 329000
Ar 1.165975e+00 0.000000e+00 0.000000e+00
1
Step 330000
Ar 9.724671e-01 0.000000e+00 0.000000e+00
1
Step 331000
Ar 1.164103e+00 0.000000e+00 0.000000e+00
1
Step 332000
Ar 9.527149e-01 0.000000e+00 0.000000e+00
1
Step 333000
Ar 9.146657e-01 0.000000e+00 0.000000e+00
1
Step 334000
Ar 1.137226e+00 0.000000e+00 0.000000e+00
1
Step 335000
Ar 9.306745e-01 0.000000e+00 0.000000e+00
1
Step 336000
Ar 1.021405e+00 0.000000e+00 0.000000e+00
1
Step 337000
Ar 9.390299e-01 0.000000e+00 0.000000e+00
1
Step 338000
Ar 1.009341e+00 0.000000e+00 0.000000e+00
1
Step 339000
Ar 8.728674e-01 0.000000e+00 0.000000e+00
1
Step 340000
Ar 1.327521e+00 0.000000e+00 0.000000e+00
1
Step 341000
Ar 1.071739e+00 0.000000e+00 0.000000e+00
1
Step 342000
Ar 1.083849e+00 0.000000e+00 0.000000e+00
1
Step 343000
Ar 9.126237e-01 0.000000e+00 0.000000e+00
1
Step 344000
Ar 1.048827e+00 0.000000e+00 0.000000e+00
1
Step 345000
Ar 8.555684e-01 0.000000e+00 0.000000e+00
1
Step 346000
Ar 9.949361e-01 0.000000e+00 0.000000e+00
1
Step 347000
Ar 8.192334e-01 0.000000e+00 0.000000e+00
1
Step 348000
Ar 1.087937e+00 0.000000e+00 0.000000e+00
1
Step 349000
Ar 1.001979e+00 0.000000e+00 0.000000e+00
1
Step 350000
Ar 1.083276e+00 0.000000e+00 0.000000e+00
1
Step 351000
Ar 8.617164e-01 0.000000e+00 0.000000e+00
1
Step 352000
Ar 8.553708e-01 0.000000e+00 0.000000e+00
1
Step 353000
Ar 1.054205e+00 0.000000e+00 0.000000e+00
1
Step 354000
Ar 1.089599e+00 0.000000e+00 0.000000e+00
1
Step 355000
Ar 1.164299e+00 0.000000e+00 0.000000e+00
1
Step 356000
Ar 8.236441e-01 0.000000e+00 0.000000e+00
1
Step 357000
Ar 1.014196e+00 0.000000e+00 0.000000e+00
1
Step 358000
Ar 8.094819e-01 0.000000e+00 0.000000e+00
1
Step 359000
Ar 1.117721e+00 0.000000e+00 0.000000e+00
1
Step 360000
Ar 1.036162e+00 0.000000e+00 0.000000e+00
1
Step 361000
Ar 1.049750e+00 0.000000e+00 0.000000e+00
1
Step 362000
Ar 1.113942e+00 0.000000e+00 0.000000e+00
1
Step 363000
Ar 7.499372e-01 0.000000e+00 0.000000e+00
1
Step 364000
Ar 9.726395e-01 0.000000e+00 0.000000e+00
1
Step 365000
Ar 9.933594e-01 0.000000e+00 0.000000e+00
1
Step 366000
Ar 1.008924e+00 0.000000e+00 0.000000e+00
1
Step 367000
Ar 9.035487e-01 0.000000e+00 0.000000e+00
1
Step 368000
Ar 7.787921e-01 0.000000e+00 0.000000e+00
1
Step 369000
Ar 9.637716e-01 0.000000e+00 0.000000e+00
1
Step 370000
Ar 9.250667e-01 0.000000e+00 0.000000e+00
1
Step 371000
Ar 1.086866e+00 0.000000e+00 0.000000e+00
1
Step 372000
Ar 1.026639e+00 0.000000e+00 0.000000e+00
1
Step 373000
Ar 1.068901e+00 0.000000e+00 0.000000e+00
1
Step 374000
Ar 1.028599e+00 0.000000e+00 0.000000e+00
1
Step 375000
Ar 1.031578e+00 0.000000e+00 0.000000e+00
1
Step 376000
Ar 1.030126e+00 0.000000e+00 0.000000e+00
1
Step 377000
Ar 1.082842e+00 0.000000e+00 0.000000e+00
1
Step 378000
Ar 7.769465e-01 0.000000e+00 0.000000e+00
1
Step 379000
Ar 1.087389e+00 0.000000e+00 0.000000e+00
1
Step 380000
Ar 9.790237e-01 0.000000e+00 0.000000e+00
1
Step 381000
Ar 8.770587e-01 0.000000e+00 0.000000e+00
1
Step 382000
Ar 1.108178e+00 0.000000e+00 0.000000e+00
1
Step 383000
Ar 1.179385e+00 0.000000e+00 0.000000e+00
1
Step 384000
Ar 7.307218e-01 0.000000e+00 0.000000e+00
1
Step 385000
Ar 7.384120e-01 0.000000e+00 0.000000e+00
1
Step 386000
Ar 1.014195e+00 0.000000e+00 0.000000e+00
1
Step 387000
Ar 1.061217e+00 0.000000e+00 0.000000e+00
1
Step 388000
Ar 9.737483e-01 0.000000e+00 0.000000e+00
1
Step 389000
Ar 7.169927e-01 0.000000e+00 0.000000e+00
1
Step 390000
Ar 9.830269e-01 0.000000e+00 0.000000e+00
1
Step 391000
Ar 8.568904e-01 0.000000e+00 0.000000e+00
1
Step 392000
Ar 1.015822e+00 0.000000e+00 0.000000e+00
1
Step 393000
Ar 9.206668e-01 0.000000e+00 0.000000e+00
1
Step 394000
Ar 1.041185e+00 0.000000e+00 0.000000e+00
1
Step 395000
Ar 1.028286e+00 0.000000e+00 0.000000e+00
1
Step 396000
Ar 9.926463e-01 0.000000e+00 0.000000e+00
1
Step 397000
Ar 9.627003e-01 0.000000e+00 0.000000e+00
1
Step 398000
Ar 1.015780e+00 0.000000e+00 0.000000e+00
1
Step 399000
Ar 1.097345e+00 0.000000e+00 0.000000e+00
1
Step 400000
Ar 1.085659e+00 0.000000e+00 0.000000e+00
1
Step 401000
Ar 9.823667e-01 0.000000e+00 0.000000e+00
1
Step 402000
Ar 8.888104e-01 0.000000e+00 0.000000e+00
1
Step 403000
Ar 1.079759e+00 0.000000e+00 0.000000e+00
1
Step 404000
Ar 8.447292e-01 0.000000e+00 0.000000e+00
1
Step 405000
Ar 9.627312e-01 0.000000e+00 0.000000e+00
1
Step 406000
Ar 9.784914e-01 0.000000e+00 0.000000e+00
1
Step 407000
Ar 1.144054e+00 0.000000e+00 0.000000e+00
1
Step 408000
Ar 1.129089e+00 0.000000e+00 0.000000e+00
1
Step 409000
Ar 1.039762e+00 0.000000e+00 0.000000e+00
1
Step 410000
Ar 9.640702e-01 0.000000e+00 0.000000e+00
1
Step 411000
Ar 9.443852e-01 0.000000e+00 0.000000e+00
1
Step 412000
Ar 9.971730e-01 0.000000e+00 0.000000e+00
1
Step 413000
Ar 1.032890e+00 0.000000e+00 0.000000e+00
1
Step 414000
Ar 1.145643e+00 0.000000e+00 0.000000e+00
1
Step 415000
Ar 9.063032e-01 0.000000e+00 0.000000e+00
1
Step 416000
Ar 9.480684e-01 0.000000e+00 0.000000e+00
1
Step 417000
Ar 8.877248e-01 0.000000e+00 0.000000e+00
1
Step 418000
Ar 1.035140e+00 0.000000e+00 0.000000e+00
1
Step 419000
Ar 8.249702e-01 0.000000e+00 0.000000e+00
1
Step 420000
Ar 9.282984e-01 0.000000e+00 0.000000e+00
1
Step 421000
Ar 1.181450e+00 0.000000e+00 0.000000e+00
1
Step 422000
Ar 1.072524e+00 0.000000e+00 0.000000e+00
1
Step 423000
Ar 1.033902e+00 0.000000e+00 0.000000e+00
1
Step 424000
Ar 9.922381e-01 0.000000e+00 0.000000e+00
1
Step 425000
Ar 1.011271e+00 0.000000e+00 0.000000e+00
1
Step 426000
Ar 6.535646e-01 0.000000e+00 0.000000e+00
1
Step 427000
Ar 9.194141e-01 0.000000e+00 0.000000e+00
1
Step 428000
Ar 8.731851e-01 0.000000e+00 0.000000e+00
1
Step 429000
Ar 1.021351e+00 0.000000e+00 0.000000e+00
1
Step 430000
Ar 1.010309e+00 0.000000e+00 0.000000e+00
1
Step 431000
Ar 9.341180e-01 0.000000e+00 0.000000e+00
1
Step 432000
Ar 1.037125e+00 0.000000e+00 0.000000e+00
1
Step 433000
Ar 1.051109e+00 0.000000e+00 0.000000e+00
1
Step 434000
Ar 9.692551e-01 0.000000e+00 0.000000e+00
1
Step 435000
Ar 1.038841e+00 0.000000e+00 0.000000e+00
1
Step 436000
Ar 1.023007e+00 0.000000e+00 0.000000e+00
1
Step 437000
Ar 1.133932e+00 0.000000e+00 0.000000e+00
1
Step 438000
Ar 1.052739e+00 0.000000e+00 0.000000e+00
1
Step 439000
Ar 1.048424e+00 0.000000e+00 0.000000e+00
1
Step 440000
Ar 9.078110e-01 0.000000e+00 0.000000e+00
1
Step 441000
Ar 9.506698e-01 0.000000e+00 0.000000e+00
1
Step 442000
Ar 9.935368e-01 0.000000e+00 0.000000e+00
1
Step 443000
Ar 7.851046e-01 0.000000e+00 0.000000e+00
1
Step 444000
Ar 9.875686e-01 0.000000e+00 0.000000e+00
1
Step 445000
Ar 1.004435e+00 0.000000e+00 0.000000e+00
1
Step 446000
Ar 1.001723e+00 0.000000e+00 0.000000e+00
1
Step 447000
Ar 1.087438e+00 0.000000e+00 0.000000e+00
1
Step 448000
Ar 1.073235e+00 0.000000e+00 0.000000e+00
1
Step 449000
Ar 8.884510e-01 0.000000e+00 0.000000e+00
1
Step 450000
Ar 1.005040e+00 0.000000e+00 0.000000e+00
1
Step 451000
Ar 9.782585e-01 0.000000e+00 0.000000e+00
1
Step 452000
Ar 9.777449e-01 0.000000e+00 0.000000e+00
1
Step 453000
Ar 7.940000e-01 0.000000e+00 0.000000e+00
1
Step 454000
Ar 9.264550e-01 0.000000e+00 0.000000e+00
1
Step 455000
Ar 1.096873e+00 0.000000e+00 0.000000e+00
1
Step 456000
Ar 9.361060e-01 0.000000e+00 0.000000e+00
1
Step 457000
Ar 1.177665e+00 0.000000e+00 0.000000e+00
1
Step 458000
Ar 1.091990e+00 0.000000e+00 0.000000e+00
1
Step 459000
Ar 8.556047e-01 0.000000e+00 0.000000e+00
1
Step 460000
Ar 1.063938e+00 0.000000e+00 0.000000e+00
1
Step 461000
Ar 9.657548e-01 0.000000e+00 0.000000e+00
1
Step 462000
Ar 9.819768e-01 0.000000e+00 0.000000e+00
1
Step 463000
Ar 9.715237e-01 0.000000e+00 0.000000e+00
1
Step 464000
Ar 9.325271e-01 0.000000e+00 0.000000e+00
1
Step 465000
Ar 9.696024e-01 0.000000e+00 0.000000e+00
1
Step 466000
Ar 8.958108e-01 0.000000e+00 0.000000e+00
1
Step 467000
Ar 8.844131e-01 0.000000e+00 0.000000e+00
1
Step 468000
Ar 1.101318e+00 0.000000e+00 0.000000e+00
1
Step 469000
Ar 9.854189e-01 0.000000e+00 0.000000e+00
1
Step 470000
Ar 1.012306e+00 0.000000e+00 0.000000e+00
1
Step 471000
Ar 1.009956e+00 0.000000e+00 0.000000e+00
1
Step 472000
Ar 9.811078e-01 0.000000e+00 0.000000e+00
1
Step 473000
Ar 8.805927e-01 0.000000e+00 0.000000e+00
1
Step 474000
Ar 1.034532e+00 0.000000e+00 0.000000e+00
1
Step 475000
Ar 7.598993e-01 0.000000e+00 0.000000e+00
1
Step 476000
Ar 1.008358e+00 0.000000e+00 0.000000e+00
1
Step 477000
Ar 1.186597e+00 0.000000e+00 0.000000e+00
1
Step 478000
Ar 9.933017e-01 0.000000e+00 0.000000e+00
1
Step 479000
Ar 1.108745e+00 0.000000e+00 0.000000e+00
1
Step 480000
Ar 1.049611e+00 0.000000e+00 0.000000e+00
1
Step 481000
Ar 6.826463e-01 0.000000e+00 0.000000e+00
1
Step 482000
Ar 9.855243e-01 0.000000e+00 0.000000e+00
1
Step 483000
Ar 9.965287e-01 0.000000e+00 0.000000e+00
1
Step 484000
Ar 1.031901e+00 0.000000e+00 0.000000e+00
1
Step 485000
Ar 8.882594e-01 0.000000e+00 0.000000e+00
1
Step 486000
Ar 1.030304e+00 0.000000e+00 0.000000e+00
1
Step 487000
Ar 7.502672e-01 0.000000e+00 0.000000e+00
1
Step 488000
Ar 1.037931e+00 0.000000e+00 0.000000e+00
1
Step 489000
Ar 8.192100e-01 0.000000e+00 0.000000e+00
1
Step 490000
Ar 1.068187e+00 0.000000e+00 0.000000e+00
1
Step 491000
Ar 9.697169e-01 0.000000e+00 0.000000e+00
1
Step 492000
Ar 9.149094e-01 0.000000e+00 0.000000e+00
1
Step 493000
Ar 7.321668e-01 0.000000e+00 0.000000e+00
1
Step 494000
Ar 1.149676e+00 0.000000e+00 0.000000e+00
1
Step 495000
Ar 1.146430e+00 0.000000e+00 0.000000e+00
1
Step 496000
Ar 1.012034e+00 0.000000e+00 0.000000e+00
1
Step 497000
Ar 9.690380e-01 0.000000e+00 0.000000e+00
1
Step 498000
Ar 1.079216e+00 0.000000e+00 0.000000e+00
1
Step 499000
Ar 8.622460e-01 0.000000e+00 0.000000e+00
1
Step 500000
Ar 1.124238e+00 0.000000e+00 0.000000e+00
1
Step 501000
Ar 1.189143e+00 0.000000e+00 0.000000e+00
1
Step 502000
Ar 9.129240e-01 0.000000e+00 0.000000e+00
1
Step 503000
Ar 9.443079e-01 0.000000e+00 0.000000e+00
1
Step 504000
Ar 9.532969e-01 0.000000e+00 0.000000e+00
1
Step 505000
Ar 1.119426e+00 0.000000e+00 0.000000e+00
1
Step 506000
Ar 9.956717e-01 0.000000e+00 0.000000e+00
1
Step 507000
Ar 9.289863e-01 0.000000e+00 0.000000e+00
1
Step 508000
Ar 9.705329e-01 0.000000e+00 0.000000e+00
1
Step 509000
Ar 1.061936e+00 0.000000e+00 0.000000e+00
1
Step 510000
Ar 9.181385e-01 0.000000e+00 0.000000e+00
1
Step 511000
Ar 9.016181e-01 0.000000e+00 0.000000e+00
1
Step 512000
Ar 1.051846e+00 0.000000e+00 0.000000e+00
1
Step 513000
Ar 1.022803e+00 0.000000e+00 0.000000e+00
1
Step 514000
Ar 1.117068e+00 0.000000e+00 0.000000e+00
1
Step 515000
Ar 9.427910e-01 0.000000e+00 0.000000e+00
1
Step 516000
Ar 9.523170e-01 0.000000e+00 0.000000e+00
1
Step 517000
Ar 1.120702e+00 0.000000e+00 0.000000e+00
1
Step 518000
Ar 9.617962e-01 0.000000e+00 0.000000e+00
1
Step 519000
Ar 1.070089e+00 0.000000e+00 0.000000e+00
1
Step 520000
Ar 9.009975e-01 0.000000e+00 0.000000e+00
1
Step 521000
Ar 8.734428e-01 0.000000e+00 0.000000e+00
1
Step 522000
Ar 8.557618e-01 0.000000e+00 0.000000e+00
1
Step 523000
Ar 8.828566e-01 0.000000e+00 0.000000e+00
1
Step 524000
Ar 8.686262e-01 0.000000e+00 0.000000e+00
1
Step 525000
Ar 8.574536e-01 0.000000e+00 0.000000e+00
1
Step 526000
Ar 7.716072e-01 0.000000e+00 0.000000e+00
1
Step 527000
Ar 8.516090e-01 0.000000e+00 0.000000e+00
1
Step 528000
Ar 8.434347e-01 0.000000e+00 0.000000e+00
1
Step 529000
Ar 8.812073e-01 0.000000e+00 0.000000e+00
1
Step 530000
Ar 7.488244e-01 0.000000e+00 0.000000e+00
1
Step 531000
Ar 7.965281e-01 0.000000e+00 0.000000e+00
1
Step 532000
Ar 8.366870e-01 0.000000e+00 0.000000e+00
1
Step 533000
Ar 8.113679e-01 0.000000e+00 0.000000e+00
1
Step 534000
Ar 8.628060e-01 0.000000e+00 0.000000e+00
1
Step 535000
Ar 8.895485e-01 0.000000e+00 0.000000e+00
1
Step 536000
Ar 8.757950e-01 0.000000e+00 0.000000e+00
1
Step 537000
Ar 8.812407e-01 0.000000e+00 0.000000e+00
1
Step 538000
Ar 8.831059e-01 0.000000e+00 0.000000e+00
1
Step 539000
Ar 7.671774e-01 0.000000e+00 0.000000e+00
1
Step 540000
Ar 7.792670e-01 0.000000e+00 0.000000e+00
1
Step 541000
Ar 8.316468e-01 0.000000e+00 0.000000e+00
1
Step 542000
Ar 8.399408e-01 0.000000e+00 0.000000e+00
1
Step 543000
Ar 7.864897e-01 0.000000e+00 0.000000e+00
1
Step 544000
Ar 8.461042e-01 0.000000e+00 0.000000e+00
1
Step 545000
Ar 7.891709e-01 0.000000e+00 0.000000e+00
1
Step 546000
Ar 8.730005e-01 0.000000e+00 0.000000e+00
1
Step 547000
Ar 8.267369e-01 0.000000e+00 0.000000e+00
1
Step 548000
Ar 8.876067e-01 0.000000e+00 0.000000e+00
1
Step 549000
Ar 8.663856e-01 0.000000e+00 0.000000e+00
1
Step 550000
Ar 7.026354e-01 0.000000e+00 0.000000e+00
1
Step 551000
Ar 8.216894e-01 0.000000e+00 0.000000e+00
1
Step 552000
Ar 8.796050e-01 0.000000e+00 0.000000e+00
1
Step 553000
Ar 8.831548e-01 0.000000e+00 0.000000e+00
1
Step 554000
Ar 7.336254e-01 0.000000e+00 0.000000e+00
1
Step 555000
Ar 7.944940e-01 0.000000e+00 0.000000e+00
1
Step 556000
Ar 8.318731e-01 0.000000e+00 0.000000e+00
1
Step 557000
Ar 8.624269e-01 0.000000e+00 0.000000e+00
1
Step 558000
Ar 7.994235e-01 0.000000e+00 0.000000e+00
1
Step 559000
Ar 8.637577e-01 0.000000e+00 0.000000e+00
1
Step 560000
Ar 8.678584e-01 0.000000e+00 0.000000e+00
1
Step 561000
Ar 7.650580e-01 0.000000e+00 0.000000e+00
1
Step 562000
Ar 7.710820e-01 0.000000e+00 0.000000e+00
1
Step 563000
Ar 8.790531e-01 0.000000e+00 0.000000e+00
1
Step 564000
Ar 8.797961e-01 0.000000e+00 0.000000e+00
1
Step 565000
Ar 7.701874e-01 0.000000e+00 0.000000e+00
1
Step 566000
Ar 7.777392e-01 0.000000e+00 0.000000e+00
1
Step 567000
Ar 7.981970e-01 0.000000e+00 0.000000e+00
1
Step 568000
Ar 7.207096e-01 0.000000e+00 0.000000e+00
1
Step 569000
Ar 7.973226e-01 0.000000e+00 0.000000e+00
1
Step 570000
Ar 7.058737e-01 0.000000e+00 0.000000e+00
1
Step 571000
Ar 8.499210e-01 0.000000e+00 0.000000e+00
1
Step 572000
Ar 8.373854e-01 0.000000e+00 0.000000e+00
1
Step 573000
Ar 7.731135e-01 0.000000e+00 0.000000e+00
1
Step 574000
Ar 7.223350e-01 0.000000e+00 0.000000e+00
1
Step 575000
Ar 8.400522e-01 0.000000e+00 0.000000e+00
1
Step 576000
Ar 8.280987e-01 0.000000e+00 0.000000e+00
1
Step 577000
Ar 7.302846e-01 0.000000e+00 0.000000e+00
1
Step 578000
Ar 7.595579e-01 0.000000e+00 0.000000e+00
1
Step 579000
Ar 7.567091e-01 0.000000e+00 0.000000e+00
1
Step 580000
Ar 7.080618e-01 0.000000e+00 0.000000e+00
1
Step 581000
Ar 7.769462e-01 0.000000e+00 0.000000e+00
1
Step 582000
Ar 7.592381e-01 0.000000e+00 0.000000e+00
1
Step 583000
Ar 8.564607e-01 0.000000e+00 0.000000e+00
1
Step 584000
Ar 8.665510e-01 0.000000e+00 0.000000e+00
1
Step 585000
Ar 7.658990e-01 0.000000e+00 0.000000e+00
1
Step 586000
Ar 8.765062e-01 0.000000e+00 0.000000e+00
1
Step 587000
Ar 8.561808e-01 0.000000e+00 0.000000e+00
1
Step 588000
Ar 6.964310e-01 0.000000e+00 0.000000e+00
1
Step 589000
Ar 8.079935e-01 0.000000e+00 0.000000e+00
1
Step 590000
Ar 8.557330e-01 0.000000e+00 0.000000e+00
1
Step 591000
Ar 7.964937e-01 0.000000e+00 0.000000e+00
1
Step 592000
Ar 8.863995e-01 0.000000e+00 0.000000e+00
1
Step 593000
Ar 7.640415e-01 0.000000e+00 0.000000e+00
1
Step 594000
Ar 8.573825e-01 0.000000e+00 0.000000e+00
1
Step 595000
Ar 8.303915e-01 0.000000e+00 0.000000e+00
1
Step 596000
Ar 8.722004e-01 0.000000e+00 0.000000e+00
1
Step 597000
Ar 8.807941e-01 0.000000e+00 0.000000e+00
1
Step 598000
Ar 8.093207e-01 0.000000e+00 0.000000e+00
1
Step 599000
Ar 7.601049e-01 0.000000e+00 0.000000e+00
1
Step 600000
Ar 7.442759e-01 0.000000e+00 0.000000e+00
1
Step 601000
Ar 8.682978e-01 0.000000e+00 0.000000e+00
1
Step 602000
Ar 7.584531e-01 0.000000e+00 0.000000e+00
1
Step 603000
Ar 8.408484e-01 0.000000e+00 0.000000e+00
1
Step 604000
Ar 6.736540e-01 0.000000e+00 0.000000e+00
1
Step 605000
Ar 8.684661e-01 0.000000e+00 0.000000e+00
1
Step 606000
Ar 8.698882e-01 0.000000e+00 0.000000e+00
1
Step 607000
Ar 8.733213e-01 0.000000e+00 0.000000e+00
1
Step 608000
Ar 8.834422e-01 0.000000e+00 0.000000e+00
1
Step 609000
Ar 8.667548e-01 0.000000e+00 0.000000e+00
1
Step 610000
Ar 8.342315e-01 0.000000e+00 0.000000e+00
1
Step 611000
Ar 8.724980e-01 0.000000e+00 0.000000e+00
1
Step 612000
Ar 8.526713e-01 0.000000e+00 0.000000e+00
1
Step 613000
Ar 8.396553e-01 0.000000e+00 0.000000e+00
1
Step 614000
Ar 8.455392e-01 0.000000e+00 0.000000e+00
1
Step 615000
Ar 8.683164e-01 0.000000e+00 0.000000e+00
1
Step 616000
Ar 8.171212e-01 0.000000e+00 0.000000e+00
1
Step 617000
Ar 7.666968e-01 0.000000e+00 0.000000e+00
1
Step 618000
Ar 7.811620e-01 0.000000e+00 0.000000e+00
1
Step 619000
Ar 8.684884e-01 0.000000e+00 0.000000e+00
1
Step 620000
Ar 7.602854e-01 0.000000e+00 0.000000e+00
1
Step 621000
Ar 8.250939e-01 0.000000e+00 0.000000e+00
1
Step 622000
Ar 8.481043e-01 0.000000e+00 0.000000e+00
1
Step 623000
Ar 8.775764e-01 0.000000e+00 0.000000e+00
1
Step 624000
Ar 8.788843e-01 0.000000e+00 0.000000e+00
1
Step 625000
Ar 8.841199e-01 0.000000e+00 0.000000e+00
1
Step 626000
Ar 7.879444e-01 0.000000e+00 0.000000e+00
1
Step 627000
Ar 8.514022e-01 0.000000e+00 0.000000e+00
1
Step 628000
Ar 7.834555e-01 0.000000e+00 0.000000e+00
1
Step 629000
Ar 8.797880e-01 0.000000e+00 0.000000e+00
1
Step 630000
Ar 8.650991e-01 0.000000e+00 0.000000e+00
1
Step 631000
Ar 8.589769e-01 0.000000e+00 0.000000e+00
1
Step 632000
Ar 8.546002e-01 0.000000e+00 0.000000e+00
1
Step 633000
Ar 8.509109e-01 0.000000e+00 0.000000e+00
1
Step 634000
Ar 7.507184e-01 0.000000e+00 0.000000e+00
1
Step 635000
Ar 8.851336e-01 0.000000e+00 0.000000e+00
1
Step 636000
Ar 7.974033e-01 0.000000e+00 0.000000e+00
1
Step 637000
Ar 7.277787e-01 0.000000e+00 0.000000e+00
1
Step 638000
Ar 6.588449e-01 0.000000e+00 0.000000e+00
1
Step 639000
Ar 8.261807e-01 0.000000e+00 0.000000e+00
1
Step 640000
Ar 7.189832e-01 0.000000e+00 0.000000e+00
1
Step 641000
Ar 7.299624e-01 0.000000e+00 0.000000e+00
1
Step 642000
Ar 8.501701e-01 0.000000e+00 0.000000e+00
1
Step 643000
Ar 8.085789e-01 0.000000e+00 0.000000e+00
1
Step 644000
Ar 7.060592e-01 0.000000e+00 0.000000e+00
1
Step 645000
Ar 6.240168e-01 0.000000e+00 0.000000e+00
1
Step 646000
Ar 7.991743e-01 0.000000e+00 0.000000e+00
1
Step 647000
Ar 8.474476e-01 0.000000e+00 0.000000e+00
1
Step 648000
Ar 8.735380e-01 0.000000e+00 0.000000e+00
1
Step 649000
Ar 8.758432e-01 0.000000e+00 0.000000e+00
1
Step 650000
Ar 8.518485e-01 0.000000e+00 0.000000e+00
1
Step 651000
Ar 8.882149e-01 0.000000e+00 0.000000e+00
1
Step 652000
Ar 7.841532e-01 0.000000e+00 0.000000e+00
1
Step 653000
Ar 8.276910e-01 0.000000e+00 0.000000e+00
1
Step 654000
Ar 8.642657e-01 0.000000e+00 0.000000e+00
1
Step 655000
Ar 7.421149e-01 0.000000e+00 0.000000e+00
1
Step 656000
Ar 7.959629e-01 0.000000e+00 0.000000e+00
1
Step 657000
Ar 8.646924e-01 0.000000e+00 0.000000e+00
1
Step 658000
Ar 7.909324e-01 0.000000e+00 0.000000e+00
1
Step 659000
Ar 7.575455e-01 0.000000e+00 0.000000e+00
1
Step 660000
Ar 7.919537e-01 0.000000e+00 0.000000e+00
1
Step 661000
Ar 8.540098e-01 0.000000e+00 0.000000e+00
1
Step 662000
Ar 7.810247e-01 0.000000e+00 0.000000e+00
1
Step 663000
Ar 8.661161e-01 0.000000e+00 0.000000e+00
1
Step 664000
Ar 8.590166e-01 0.000000e+00 0.000000e+00
1
Step 665000
Ar 8.584843e-01 0.000000e+00 0.000000e+00
1
Step 666000
Ar 8.618398e-01 0.000000e+00 0.000000e+00
1
Step 667000
Ar 8.892644e-01 0.000000e+00 0.000000e+00
1
Step 668000
Ar 8.174930e-01 0.000000e+00 0.000000e+00
1
Step 669000
Ar 7.911368e-01 0.000000e+00 0.000000e+00
1
Step 670000
Ar 8.324927e-01 0.000000e+00 0.000000e+00
1
Step 671000
Ar 7.780495e-01 0.000000e+00 0.000000e+00
1
Step 672000
Ar 8.432527e-01 0.000000e+00 0.000000e+00
1
Step 673000
Ar 7.117904e-01 0.000000e+00 0.000000e+00
1
Step 674000
Ar 8.056351e-01 0.000000e+00 0.000000e+00
1
Step 675000
Ar 7.396067e-01 0.000000e+00 0.000000e+00
1
Step 676000
Ar 8.581218e-01 0.000000e+00 0.000000e+00
1
Step 677000
Ar 8.018098e-01 0.000000e+00 0.000000e+00
1
Step 678000
Ar 8.630363e-01 0.000000e+00 0.000000e+00
1
Step 679000
Ar 7.966128e-01 0.000000e+00 0.000000e+00
1
Step 680000
Ar 8.650333e-01 0.000000e+00 0.000000e+00
1
Step 681000
Ar 8.925888e-01 0.000000e+00 0.000000e+00
1
Step 682000
Ar 8.605766e-01 0.000000e+00 0.000000e+00
1
Step 683000
Ar 8.415509e-01 0.000000e+00 0.000000e+00
1
Step 684000
Ar 8.041891e-01 0.000000e+00 0.000000e+00
1
Step 685000
Ar 8.886626e-01 0.000000e+00 0.000000e+00
1
Step 686000
Ar 8.783982e-01 0.000000e+00 0.000000e+00
1
Step 687000
Ar 8.355083e-01 0.000000e+00 0.000000e+00
1
Step 688000
Ar 7.358904e-01 0.000000e+00 0.000000e+00
1
Step 689000
Ar 8.414970e-01 0.000000e+00 0.000000e+00
1
Step 690000
Ar 7.990062e-01 0.000000e+00 0.000000e+00
1
Step 691000
Ar 7.644843e-01 0.000000e+00 0.000000e+00
1
Step 692000
Ar 8.625930e-01 0.000000e+00 0.000000e+00
1
Step 693000
Ar 7.917725e-01 0.000000e+00 0.000000e+00
1
Step 694000
Ar 7.608886e-01 0.000000e+00 0.000000e+00
1
Step 695000
Ar 8.678906e-01 0.000000e+00 0.000000e+00
1
Step 696000
Ar 8.095084e-01 0.000000e+00 0.000000e+00
1
Step 697000
Ar 8.445284e-01 0.000000e+00 0.000000e+00
1
Step 698000
Ar 8.272917e-01 0.000000e+00 0.000000e+00
1
Step 699000
Ar 8.571772e-01 0.000000e+00 0.000000e+00
1
Step 700000
Ar 8.859050e-01 0.000000e+00 0.000000e+00
1
Step 701000
Ar 8.133524e-01 0.000000e+00 0.000000e+00
1
Step 702000
Ar 8.735892e-01 0.000000e+00 0.000000e+00
1
Step 703000
Ar 8.798111e-01 0.000000e+00 0.000000e+00
1
Step 704000
Ar 8.705149e-01 0.000000e+00 0.000000e+00
1
Step 705000
Ar 8.474532e-01 0.000000e+00 0.000000e+00
1
Step 706000
Ar 8.096929e-01 0.000000e+00 0.000000e+00
1
Step 707000
Ar 8.803386e-01 0.000000e+00 0.000000e+00
1
Step 708000
Ar 8.625715e-01 0.000000e+00 0.000000e+00
1
Step 709000
Ar 8.900126e-01 0.000000e+00 0.000000e+00
1
Step 710000
Ar 8.820770e-01 0.000000e+00 0.000000e+00
1
Step 711000
Ar 8.203863e-01 0.000000e+00 0.000000e+00
1
Step 712000
Ar 7.630740e-01 0.000000e+00 0.000000e+00
1
Step 713000
Ar 8.714126e-01 0.000000e+00 0.000000e+00
1
Step 714000
Ar 8.733886e-01 0.000000e+00 0.000000e+00
1
Step 715000
Ar 7.063335e-01 0.000000e+00 0.000000e+00
1
Step 716000
Ar 8.743323e-01 0.000000e+00 0.000000e+00
1
Step 717000
Ar 8.821573e-01 0.000000e+00 0.000000e+00
1
Step 718000
Ar 7.553683e-01 0.000000e+00 0.000000e+00
1
Step 719000
Ar 8.802051e-01 0.000000e+00 0.000000e+00
1
Step 720000
Ar 8.469801e-01 0.000000e+00 0.000000e+00
1
Step 721000
Ar 8.645305e-01 0.000000e+00 0.000000e+00
1
Step 722000
Ar 7.717238e-01 0.000000e+00 0.000000e+00
1
Step 723000
Ar 8.048928e-01 0.000000e+00 0.000000e+00
1
Step 724000
Ar 7.549682e-01 0.000000e+00 0.000000e+00
1
Step 725000
Ar 8.778077e-01 0.000000e+00 0.000000e+00
1
Step 726000
Ar 7.787179e-01 0.000000e+00 0.000000e+00
1
Step 727000
Ar 8.082461e-01 0.000000e+00 0.000000e+00
1
Step 728000
Ar 7.331560e-01 0.000000e+00 0.000000e+00
1
Step 729000
Ar 8.186450e-01 0.000000e+00 0.000000e+00
1
Step 730000
Ar 8.400994e-01 0.000000e+00 0.000000e+00
1
Step 731000
Ar 5.306648e-01 0.000000e+00 0.000000e+00
1
Step 732000
Ar 7.100887e-01 0.000000e+00 0.000000e+00
1
Step 733000
Ar 8.810434e-01 0.000000e+00 0.000000e+00
1
Step 734000
Ar 8.815208e-01 0.000000e+00 0.000000e+00
1
Step 735000
Ar 8.745209e-01 0.000000e+00 0.000000e+00
1
Step 736000
Ar 7.779234e-01 0.000000e+00 0.000000e+00
1
Step 737000
Ar 7.990674e-01 0.000000e+00 0.000000e+00
1
Step 738000
Ar 7.712316e-01 0.000000e+00 0.000000e+00
1
Step 739000
Ar 7.802681e-01 0.000000e+00 0.000000e+00
1
Step 740000
Ar 6.936273e-01 0.000000e+00 0.000000e+00
1
Step 741000
Ar 8.628469e-01 0.000000e+00 0.000000e+00
1
Step 742000
Ar 8.834313e-01 0.000000e+00 0.000000e+00
1
Step 743000
Ar 8.415569e-01 0.000000e+00 0.000000e+00
1
Step 744000
Ar 8.741488e-01 0.000000e+00 0.000000e+00
1
Step 745000
Ar 8.209659e-01 0.000000e+00 0.000000e+00
1
Step 746000
Ar 7.886452e-01 0.000000e+00 0.000000e+00
1
Step 747000
Ar 8.554792e-01 0.000000e+00 0.000000e+00
1
Step 748000
Ar 8.772130e-01 0.000000e+00 0.000000e+00
1
Step 749000
Ar 8.863800e-01 0.000000e+00 0.000000e+00
1
Step 750000
Ar 7.680319e-01 0.000000e+00 0.000000e+00
1
Step 751000
Ar 8.249422e-01 0.000000e+00 0.000000e+00
1
Step 752000
Ar 7.143807e-01 0.000000e+00 0.000000e+00
1
Step 753000
Ar 8.601974e-01 0.000000e+00 0.000000e+00
1
Step 754000
Ar 8.851503e-01 0.000000e+00 0.000000e+00
1
Step 755000
Ar 8.242179e-01 0.000000e+00 0.000000e+00
1
Step 756000
Ar 8.631117e-01 0.000000e+00 0.000000e+00
1
Step 757000
Ar 8.687345e-01 0.000000e+00 0.000000e+00
1
Step 758000
Ar 6.999749e-01 0.000000e+00 0.000000e+00
1
Step 759000
Ar 8.304583e-01 0.000000e+00 0.000000e+00
1
Step 760000
Ar 7.821486e-01 0.000000e+00 0.000000e+00
1
Step 761000
Ar 8.713304e-01 0.000000e+00 0.000000e+00
1
Step 762000
Ar 8.061256e-01 0.000000e+00 0.000000e+00
1
Step 763000
Ar 8.823196e-01 0.000000e+00 0.000000e+00
1
Step 764000
Ar 7.975319e-01 0.000000e+00 0.000000e+00
1
Step 765000
Ar 8.560389e-01 0.000000e+00 0.000000e+00
1
Step 766000
Ar 8.146899e-01 0.000000e+00 0.000000e+00
1
Step 767000
Ar 6.808369e-01 0.000000e+00 0.000000e+00
1
Step 768000
Ar 7.917691e-01 0.000000e+00 0.000000e+00
1
Step 769000
Ar 7.784826e-01 0.000000e+00 0.000000e+00
1
Step 770000
Ar 8.285559e-01 0.000000e+00 0.000000e+00
1
Step 771000
Ar 8.536031e-01 0.000000e+00 0.000000e+00
1
Step 772000
Ar 7.845217e-01 0.000000e+00 0.000000e+00
1
Step 773000
Ar 7.425307e-01 0.000000e+00 0.000000e+00
1
Step 774000
Ar 7.680057e-01 0.000000e+00 0.000000e+00
1
Step 775000
Ar 8.846393e-01 0.000000e+00 0.000000e+00
1
Step 776000
Ar 8.134723e-01 0.000000e+00 0.000000e+00
1
Step 777000
Ar 8.732029e-01 0.000000e+00 0.000000e+00
1
Step 778000
Ar 5.947486e-01 0.000000e+00 0.000000e+00
1
Step 779000
Ar 8.908067e-01 0.000000e+00 0.000000e+00
1
Step 780000
Ar 7.991335e-01 0.000000e+00 0.000000e+00
1
Step 781000
Ar 8.856504e-01 0.000000e+00 0.000000e+00
1
Step 782000
Ar 8.284336e-01 0.000000e+00 0.000000e+00
1
Step 783000
Ar 8.675700e-01 0.000000e+00 0.000000e+00
1
Step 784000
Ar 8.161332e-01 0.000000e+00 0.000000e+00
1
Step 785000
Ar 6.084225e-01 0.000000e+00 0.000000e+00
1
Step 786000
Ar 8.396573e-01 0.000000e+00 0.000000e+00
1
Step 787000
Ar 8.080855e-01 0.000000e+00 0.000000e+00
1
Step 788000
Ar 8.213135e-01 0.000000e+00 0.000000e+00
1
Step 789000
Ar 8.134830e-01 0.000000e+00 0.000000e+00
1
Step 790000
Ar 7.070909e-01 0.000000e+00 0.000000e+00
1
Step 791000
Ar 7.040106e-01 0.000000e+00 0.000000e+00
1
Step 792000
Ar 6.969528e-01 0.000000e+00 0.000000e+00
1
Step 793000
Ar 6.655589e-01 0.000000e+00 0.000000e+00
1
Step 794000
Ar 8.597546e-01 0.000000e+00 0.000000e+00
1
Step 795000
Ar 7.511334e-01 0.000000e+00 0.000000e+00
1
Step 796000
Ar 8.520860e-01 0.000000e+00 0.000000e+00
1
Step 797000
Ar 8.397278e-01 0.000000e+00 0.000000e+00
1
Step 798000
Ar 7.472909e-01 0.000000e+00 0.000000e+00
1
Step 799000
Ar 7.940594e-01 0.000000e+00 0.000000e+00
1
Step 800000
Ar 8.567566e-01 0.000000e+00 0.000000e+00
1
Step 801000
Ar 8.036842e-01 0.000000e+00 0.000000e+00
1
Step 802000
Ar 8.380950e-01 0.000000e+00 0.000000e+00
1
Step 803000
Ar 7.336078e-01 0.000000e+00 0.000000e+00
1
Step 804000
Ar 8.507701e-01 0.000000e+00 0.000000e+00
1
Step 805000
Ar 8.320400e-01 0.000000e+00 0.000000e+00
1
Step 806000
Ar 7.960341e-01 0.000000e+00 0.000000e+00
1
Step 807000
Ar 8.580723e-01 0.000000e+00 0.000000e+00
1
Step 808000
Ar 7.746919e-01 0.000000e+00 0.000000e+00
1
Step 809000
Ar 8.874793e-01 0.000000e+00 0.000000e+00
1
Step 810000
Ar 8.508410e-01 0.000000e+00 0.000000e+00
1
Step 811000
Ar 8.366677e-01 0.000000e+00 0.000000e+00
1
Step 812000
Ar 8.136975e-01 0.000000e+00 0.000000e+00
1
Step 813000
Ar 8.388017e-01 0.000000e+00 0.000000e+00
1
Step 814000
Ar 8.000115e-01 0.000000e+00 0.000000e+00
1
Step 815000
Ar 7.605601e-01 0.000000e+00 0.000000e+00
1
Step 816000
Ar 8.305877e-01 0.000000e+00 0.000000e+00
1
Step 817000
Ar 8.288468e-01 0.000000e+00 0.000000e+00
1
Step 818000
Ar 7.677569e-01 0.000000e+00 0.000000e+00
1
Step 819000
Ar 8.672845e-01 0.000000e+00 0.000000e+00
1
Step 820000
Ar 8.699269e-01 0.000000e+00 0.000000e+00
1
Step 821000
Ar 8.762675e-01 0.000000e+00 0.000000e+00
1
Step 822000
Ar 8.845317e-01 0.000000e+00 0.000000e+00
1
Step 823000
Ar 6.978238e-01 0.000000e+00 0.000000e+00
1
Step 824000
Ar 8.360202e-01 0.000000e+00 0.000000e+00
1
Step 825000
Ar 8.557522e-01 0.000000e+00 0.000000e+00
1
Step 826000
Ar 8.488697e-01 0.000000e+00 0.000000e+00
1
Step 827000
Ar 7.784093e-01 0.000000e+00 0.000000e+00
1
Step 828000
Ar 7.840266e-01 0.000000e+00 0.000000e+00
1
Step 829000
Ar 8.277556e-01 0.000000e+00 0.000000e+00
1
Step 830000
Ar 7.069975e-01 0.000000e+00 0.000000e+00
1
Step 831000
Ar 8.675862e-01 0.000000e+00 0.000000e+00
1
Step 832000
Ar 7.092189e-01 0.000000e+00 0.000000e+00
1
Step 833000
Ar 8.485332e-01 0.000000e+00 0.000000e+00
1
Step 834000
Ar 8.655115e-01 0.000000e+00 0.000000e+00
1
Step 835000
Ar 8.714136e-01 0.000000e+00 0.000000e+00
1
Step 836000
Ar 7.696196e-01 0.000000e+00 0.000000e+00
1
Step 837000
Ar 8.451234e-01 0.000000e+00 0.000000e+00
1
Step 838000
Ar 7.282767e-01 0.000000e+00 0.000000e+00
1
Step 839000
Ar 8.879687e-01 0.000000e+00 0.000000e+00
1
Step 840000
Ar 8.655520e-01 0.000000e+00 0.000000e+00
1
Step 841000
Ar 8.513615e-01 0.000000e+00 0.000000e+00
1
Step 842000
Ar 7.157594e-01 0.000000e+00 0.000000e+00
1
Step 843000
Ar 7.914920e-01 0.000000e+00 0.000000e+00
1
Step 844000
Ar 8.894324e-01 0.000000e+00 0.000000e+00
1
Step 845000
Ar 8.128453e-01 0.000000e+00 0.000000e+00
1
Step 846000
Ar 3.576556e-01 0.000000e+00 0.000000e+00
1
Step 847000
Ar 8.759215e-01 0.000000e+00 0.000000e+00
1
Step 848000
Ar 6.883880e-01 0.000000e+00 0.000000e+00
1
Step 849000
Ar 7.900515e-01 0.000000e+00 0.000000e+00
1
Step 850000
Ar 8.552615e-01 0.000000e+00 0.000000e+00
1
Step 851000
Ar 8.596457e-01 0.000000e+00 0.000000e+00
1
Step 852000
Ar 7.619716e-01 0.000000e+00 0.000000e+00
1
Step 853000
Ar 8.269384e-01 0.000000e+00 0.000000e+00
1
Step 854000
Ar 8.813409e-01 0.000000e+00 0.000000e+00
1
Step 855000
Ar 7.662299e-01 0.000000e+00 0.000000e+00
1
Step 856000
Ar 8.335632e-01 0.000000e+00 0.000000e+00
1
Step 857000
Ar 8.197985e-01 0.000000e+00 0.000000e+00
1
Step 858000
Ar 8.870338e-01 0.000000e+00 0.000000e+00
1
Step 859000
Ar 8.336761e-01 0.000000e+00 0.000000e+00
1
Step 860000
Ar 8.106894e-01 0.000000e+00 0.000000e+00
1
Step 861000
Ar 8.242019e-01 0.000000e+00 0.000000e+00
1
Step 862000
Ar 7.838165e-01 0.000000e+00 0.000000e+00
1
Step 863000
Ar 7.048555e-01 0.000000e+00 0.000000e+00
1
Step 864000
Ar 8.329165e-01 0.000000e+00 0.000000e+00
1
Step 865000
Ar 7.423354e-01 0.000000e+00 0.000000e+00
1
Step 866000
Ar 8.812085e-01 0.000000e+00 0.000000e+00
1
Step 867000
Ar 7.813084e-01 0.000000e+00 0.000000e+00
1
Step 868000
Ar 8.340863e-01 0.000000e+00 0.000000e+00
1
Step 869000
Ar 8.306999e-01 0.000000e+00 0.000000e+00
1
Step 870000
Ar 7.985360e-01 0.000000e+00 0.000000e+00
1
Step 871000
Ar 8.784541e-01 0.000000e+00 0.000000e+00
1
Step 872000
Ar 8.266013e-01 0.000000e+00 0.000000e+00
1
Step 873000
Ar 8.669913e-01 0.000000e+00 0.000000e+00
1
Step 874000
Ar 7.769915e-01 0.000000e+00 0.000000e+00
1
Step 875000
Ar 7.583271e-01 0.000000e+00 0.000000e+00
1
Step 876000
Ar 7.610513e-01 0.000000e+00 0.000000e+00
1
Step 877000
Ar 7.335432e-01 0.000000e+00 0.000000e+00
1
Step 878000
Ar 8.465618e-01 0.000000e+00 0.000000e+00
1
Step 879000
Ar 8.667522e-01 0.000000e+00 0.000000e+00
1
Step 880000
Ar 7.642878e-01 0.000000e+00 0.000000e+00
1
Step 881000
Ar 8.845587e-01 0.000000e+00 0.000000e+00
1
Step 882000
Ar 8.586557e-01 0.000000e+00 0.000000e+00
1
Step 883000
Ar 8.739733e-01 0.000000e+00 0.000000e+00
1
Step 884000
Ar 8.856640e-01 0.000000e+00 0.000000e+00
1
Step 885000
Ar 8.764873e-01 0.000000e+00 0.000000e+00
1
Step 886000
Ar 8.360137e-01 0.000000e+00 0.000000e+00
1
Step 887000
Ar 8.891993e-01 0.000000e+00 0.000000e+00
1
Step 888000
Ar 8.640033e-01 0.000000e+00 0.000000e+00
1
Step 889000
Ar 8.655539e-01 0.000000e+00 0.000000e+00
1
Step 890000
Ar 8.488810e-01 0.000000e+00 0.000000e+00
1
Step 891000
Ar 8.495869e-01 0.000000e+00 0.000000e+00
1
Step 892000
Ar 7.952310e-01 0.000000e+00 0.000000e+00
1
Step 893000
Ar 8.277835e-01 0.000000e+00 0.000000e+00
1
Step 894000
Ar 8.640549e-01 0.000000e+00 0.000000e+00
1
Step 895000
Ar 7.826381e-01 0.000000e+00 0.000000e+00
1
Step 896000
Ar 6.832929e-01 0.000000e+00 0.000000e+00
1
Step 897000
Ar 7.660763e-01 0.000000e+00 0.000000e+00
1
Step 898000
Ar 8.379513e-01 0.000000e+00 0.000000e+00
1
Step 899000
Ar 7.841161e-01 0.000000e+00 0.000000e+00
1
Step 900000
Ar 7.980297e-01 0.000000e+00 0.000000e+00
1
Step 901000
Ar 8.707285e-01 0.000000e+00 0.000000e+00
1
Step 902000
Ar 7.536841e-01 0.000000e+00 0.000000e+00
1
Step 903000
Ar 8.690534e-01 0.000000e+00 0.000000e+00
1
Step 904000
Ar 8.112200e-01 0.000000e+00 0.000000e+00
1
Step 905000
Ar 8.720376e-01 0.000000e+00 0.000000e+00
1
Step 906000
Ar 8.054478e-01 0.000000e+00 0.000000e+00
1
Step 907000
Ar 8.081625e-01 0.000000e+00 0.000000e+00
1
Step 908000
Ar 8.135936e-01 0.000000e+00 0.000000e+00
1
Step 909000
Ar 7.470043e-01 0.000000e+00 0.000000e+00
1
Step 910000
Ar 8.900057e-01 0.000000e+00 0.000000e+00
1
Step 911000
Ar 8.435430e-01 0.000000e+00 0.000000e+00
1
Step 912000
Ar 7.666068e-01 0.000000e+00 0.000000e+00
1
Step 913000
Ar 8.633083e-01 0.000000e+00 0.000000e+00
1
Step 914000
Ar 8.623703e-01 0.000000e+00 0.000000e+00
1
Step 915000
Ar 5.747155e-01 0.000000e+00 0.000000e+00
1
Step 916000
Ar 8.411909e-01 0.000000e+00 0.000000e+00
1
Step 917000
Ar 8.859515e-01 0.000000e+00 0.000000e+00
1
Step 918000
Ar 8.146374e-01 0.000000e+00 0.000000e+00
1
Step 919000
Ar 8.118046e-01 0.000000e+00 0.000000e+00
1
Step 920000
Ar 6.574199e-01 0.000000e+00 0.000000e+00
1
Step 921000
Ar 8.063426e-01 0.000000e+00 0.000000e+00
1
Step 922000
Ar 8.812709e-01 0.000000e+00 0.000000e+00
1
Step 923000
Ar 7.701943e-01 0.000000e+00 0.000000e+00
1
Step 924000
Ar 8.767960e-01 0.000000e+00 0.000000e+00
1
Step 925000
Ar 8.346445e-01 0.000000e+00 0.000000e+00
1
Step 926000
Ar 8.608414e-01 0.000000e+00 0.000000e+00
1
Step 927000
Ar 7.729076e-01 0.000000e+00 0.000000e+00
1
Step 928000
Ar 7.547915e-01 0.000000e+00 0.000000e+00
1
Step 929000
Ar 8.118548e-01 0.000000e+00 0.000000e+00
1
Step 930000
Ar 8.210167e-01 0.000000e+00 0.000000e+00
1
Step 931000
Ar 7.992603e-01 0.000000e+00 0.000000e+00
1
Step 932000
Ar 8.241607e-01 0.000000e+00 0.000000e+00
1
Step 933000
Ar 7.727313e-01 0.000000e+00 0.000000e+00
1
Step 934000
Ar 8.679138e-01 0.000000e+00 0.000000e+00
1
Step 935000
Ar 8.730907e-01 0.000000e+00 0.000000e+00
1
Step 936000
Ar 6.511801e-01 0.000000e+00 0.000000e+00
1
Step 937000
Ar 7.566950e-01 0.000000e+00 0.000000e+00
1
Step 938000
Ar 8.480713e-01 0.000000e+00 0.000000e+00
1
Step 939000
Ar 8.545650e-01 0.000000e+00 0.000000e+00
1
Step 940000
Ar 7.753302e-01 0.000000e+00 0.000000e+00
1
Step 941000
Ar 8.362746e-01 0.000000e+00 0.000000e+00
1
Step 942000
Ar 8.394790e-01 0.000000e+00 0.000000e+00
1
Step 943000
Ar 8.601261e-01 0.000000e+00 0.000000e+00
1
Step 944000
Ar 8.095546e-01 0.000000e+00 0.000000e+00
1
Step 945000
Ar 8.798425e-01 0.000000e+00 0.000000e+00
1
Step 946000
Ar 8.541854e-01 0.000000e+00 0.000000e+00
1
Step 947000
Ar 8.614222e-01 0.000000e+00 0.000000e+00
1
Step 948000
Ar 7.539506e-01 0.000000e+00 0.000000e+00
1
Step 949000
Ar 7.930264e-01 0.000000e+00 0.000000e+00
1
Step 950000
Ar 8.646638e-01 0.000000e+00 0.000000e+00
1
Step 951000
Ar 8.295368e-01 0.000000e+00 0.000000e+00
1
Step 952000
Ar 6.686277e-01 0.000000e+00 0.000000e+00
1
Step 953000
Ar 8.517919e-01 0.000000e+00 0.000000e+00
1
Step 954000
Ar 8.572997e-01 0.000000e+00 0.000000e+00
1
Step 955000
Ar 8.512395e-01 0.000000e+00 0.000000e+00
1
Step 956000
Ar 8.489311e-01 0.000000e+00 0.000000e+00
1
Step 957000
Ar 8.849642e-01 0.000000e+00 0.000000e+00
1
Step 958000
Ar 8.491329e-01 0.000000e+00 0.000000e+00
1
Step 959000
Ar 6.665593e-01 0.000000e+00 0.000000e+00
1
Step 960000
Ar 8.373388e-01 0.000000e+00 0.000000e+00
1
Step 961000
Ar 7.951280e-01 0.000000e+00 0.000000e+00
1
Step 962000
Ar 8.402473e-01 0.000000e+00 0.000000e+00
1
Step 963000
Ar 8.549998e-01 0.000000e+00 0.000000e+00
1
Step 964000
Ar 8.006852e-01 0.000000e+00 0.000000e+00
1
Step 965000
Ar 7.596262e-01 0.000000e+00 0.000000e+00
1
Step 966000
Ar 8.433970e-01 0.000000e+00 0.000000e+00
1
Step 967000
Ar 7.548665e-01 0.000000e+00 0.000000e+00
1
Step 968000
Ar 7.481570e-01 0.000000e+00 0.000000e+00
1
Step 969000
Ar 8.757234e-01 0.000000e+00 0.000000e+00
1
Step 970000
Ar 8.705875e-01 0.000000e+00 0.000000e+00
1
Step 971000
Ar 8.306004e-01 0.000000e+00 0.000000e+00
1
Step 972000
Ar 7.262672e-01 0.000000e+00 0.000000e+00
1
Step 973000
Ar 8.434447e-01 0.000000e+00 0.000000e+00
1
Step 974000
Ar 8.458141e-01 0.000000e+00 0.000000e+00
1
Step 975000
Ar 8.010577e-01 0.000000e+00 0.000000e+00
1
Step 976000
Ar 7.277552e-01 0.000000e+00 0.000000e+00
1
Step 977000
Ar 7.990439e-01 0.000000e+00 0.000000e+00
1
Step 978000
Ar 8.216561e-01 0.000000e+00 0.000000e+00
1
Step 979000
Ar 8.460258e-01 0.000000e+00 0.000000e+00
1
Step 980000
Ar 8.629712e-01 0.000000e+00 0.000000e+00
1
Step 981000
Ar 7.532574e-01 0.000000e+00 0.000000e+00
1
Step 982000
Ar 8.713964e-01 0.000000e+00 0.000000e+00
1
Step 983000
Ar 7.695781e-01 0.000000e+00 0.000000e+00
1
Step 984000
Ar 8.811360e-01 0.000000e+00 0.000000e+00
1
Step 985000
Ar 7.872703e-01 0.000000e+00 0.000000e+00
1
Step 986000
Ar 8.103000e-01 0.000000e+00 0.000000e+00
1
Step 987000
Ar 8.281079e-01 0.000000e+00 0.000000e+00
1
Step 988000
Ar 8.524558e-01 0.000000e+00 0.000000e+00
1
Step 989000
Ar 7.817000e-01 0.000000e+00 0.000000e+00
1
Step 990000
Ar 8.779264e-01 0.000000e+00 0.000000e+00
1
Step 991000
Ar 8.042621e-01 0.000000e+00 0.000000e+00
1
Step 992000
Ar 8.811986e-01 0.000000e+00 0.000000e+00
1
Step 993000
Ar 8.871841e-01 0.000000e+00 0.000000e+00
1
Step 994000
Ar 8.782615e-01 0.000000e+00 0.000000e+00
1
Step 995000
Ar 7.663813e-01 0.000000e+00 0.000000e+00
1
Step 996000
Ar 5.619924e-01 0.000000e+00 0.000000e+00
1
Step 997000
Ar 8.593520e-01 0.000000e+00 0.000000e+00
1
Step 998000
Ar 7.680748e-01 0.000000e+00 0.000000e+00
1
Step 999000
Ar 8.856143e-01 0.000000e+00 0.000000e+00
