1
Step 120000
Ar 1.062693e+00 0.000000e+00 0.000000e+00
1
Step 121000
Ar 9.563017e-01 0.000000e+00 0.000000e+00
1
Step 122000
Ar 1.035890e+00 0.000000e+00 0.000000e+00
1
Step 123000
Ar 1.086914e+00 0.000000e+00 0.000000e+00
1
Step 124000
Ar 1.034694e+00 0.000000e+00 0.000000e+00
1
Step 125000
Ar 1.081868e+00 0.000000e+00 0.000000e+00
1
Step 126000
Ar 1.106866e+00 0.000000e+00 0.000000e+00
1
Step 127000
Ar 8.772642e-01 0.000000e+00 0.000000e+00
1
Step 128000
Ar 8.545956e-01 0.000000e+00 0.000000e+00
1
Step 129000
Ar 1.026877e+00 0.000000e+00 0.000000e+00
1
Step 130000
Ar 9.769324e-01 0.000000e+00 0.000000e+00
1
Step 131000
Ar 8.064179e-01 0.000000e+00 0.000000e+00
1
Step 132000
Ar 1.040736e+00 0.000000e+00 0.000000e+00
1
Step 133000
Ar 9.159828e-01 0.000000e+00 0.000000e+00
1
Step 134000
Ar 1.030054e+00 0.000000e+00 0.000000e+00
1
Step 135000
Ar 1.054696e+00 0.000000e+00 0.000000e+00
1
Step 136000
Ar 9.422871e-01 0.000000e+00 0.000000e+00
1
Step 137000
Ar 1.095297e+00 0.000000e+00 0.000000e+00
1
Step 138000
Ar 8.724494e-01 0.000000e+00 0.000000e+00
1
Step 139000
Ar 9.025689e-01 0.000000e+00 0.000000e+00
1
Step 140000
Ar 8.601422e-01 0.000000e+00 0.000000e+00
1
Step 141000
Ar 9.247145e-01 0.000000e+00 0.000000e+00
1
Step 142000
Ar 1.114759e+00 0.000000e+00 0.000000e+00
1
Step 143000
Ar 1.118694e+00 0.000000e+00 0.000000e+00
1
Step 144000
Ar 9.491367e-01 0.000000e+00 0.000000e+00
1
Step 145000
Ar 1.180251e+00 0.000000e+00 0.000000e+00
1
Step 146000
Ar 9.510704e-01 0.000000e+00 0.000000e+00
1
Step 147000
Ar 1.082490e+00 0.000000e+00 0.000000e+00
1
Step 148000
Ar 1.032298e+00 0.000000e+00 0.000000e+00
1
Step 149000
Ar 1.182551e+00 0.000000e+00 0.000000e+00
1
Step 150000
Ar 1.033207e+00 0.000000e+00 0.000000e+00
1
Step 151000
Ar 1.001599e+00 0.000000e+00 0.000000e+00
1
Step 152000
Ar 9.849790e-01 0.000000e+00 0.000000e+00
1
Step 153000
Ar 9.955527e-01 0.000000e+00 0.000000e+00
1
Step 154000
Ar 8.039550e-01 0.000000e+00 0.000000e+00
1
Step 155000
Ar 1.050854e+00 0.000000e+00 0.000000e+00
1
Step 156000
Ar 8.739747e-01 0.000000e+00 0.000000e+00
1
Step 157000
Ar 1.092514e+00 0.000000e+00 0.000000e+00
1
Step 158000
Ar 1.137386e+00 0.000000e+00 0.000000e+00
1
Step 159000
Ar 1.022533e+00 0.000000e+00 0.000000e+00
1
Step 160000
Ar 1.177858e+00 0.000000e+00 0.000000e+00
1
Step 161000
Ar 1.036113e+00 0.000000e+00 0.000000e+00
1
Step 162000
Ar 1.000295e+00 0.000000e+00 0.000000e+00
1
Step 163000
Ar 1.120460e+00 0.000000e+00 0.000000e+00
1
Step 164000
Ar 1.086485e+00 0.000000e+00 0.000000e+00
1
Step 165000
Ar 7.981262e-01 0.000000e+00 0.000000e+00
1
Step 166000
Ar 9.257773e-01 0.000000e+00 0.000000e+00
1
Step 167000
Ar 1.078957e+00 0.000000e+00 0.000000e+00
1
Step 168000
Ar 5.711120e-01 0.000000e+00 0.000000e+00
1
Step 169000
Ar 7.845550e-01 0.000000e+00 0.000000e+00
1
Step 170000
Ar 8.158171e-01 0.000000e+00 0.000000e+00
1
Step 171000
Ar 1.222168e+00 0.000000e+00 0.000000e+00
1
Step 172000
Ar 1.095999e+00 0.000000e+00 0.000000e+00
1
Step 173000
Ar 9.272780e-01 0.000000e+00 0.000000e+00
1
Step 174000
Ar 9.096626e-01 0.000000e+00 0.000000e+00
1
Step 175000
Ar 1.039121e+00 0.000000e+00 0.000000e+00
1
Step 176000
Ar 1.022576e+00 0.000000e+00 0.000000e+00
1
Step 177000
Ar 9.920809e-01 0.000000e+00 0.000000e+00
1
Step 178000
Ar 1.082132e+00 0.000000e+00 0.000000e+00
1
Step 179000
Ar 1.036171e+00 0.000000e+00 0.000000e+00
1
Step 180000
Ar 8.360932e-01 0.000000e+00 0.000000e+00
1
Step 181000
Ar 1.053863e+00 0.000000e+00 0.000000e+00
1
Step 182000
Ar 9.362431e-01 0.000000e+00 0.000000e+00
1
Step 183000
Ar 1.162096e+00 0.000000e+00 0.000000e+00
1
Step 184000
Ar 8.434310e-01 0.000000e+00 0.000000e+00
1
Step 185000
Ar 9.912791e-01 0.000000e+00 0.000000e+00
1
Step 186000
Ar 9.093777e-01 0.000000e+00 0.000000e+00
1
Step 187000
Ar 1.069920e+00 0.000000e+00 0.000000e+00
1
Step 188000
Ar 8.435775e-01 0.000000e+00 0.000000e+00
1
Step 189000
Ar 1.003480e+00 0.000000e+00 0.000000e+00
1
Step 190000
Ar 8.901050e-01 0.000000e+00 0.000000e+00
1
Step 191000
Ar 8.696043e-01 0.000000e+00 0.000000e+00
1
Step 192000
Ar 8.507262e-01 0.000000e+00 0.000000e+00
1
Step 193000
Ar 8.115492e-01 0.000000e+00 0.000000e+00
1
Step 194000
Ar 1.016900e+00 0.000000e+00 0.000000e+00
1
Step 195000
Ar 8.693100e-01 0.000000e+00 0.000000e+00
1
Step 196000
Ar 1.091196e+00 0.000000e+00 0.000000e+00
1
Step 197000
Ar 8.405260e-01 0.000000e+00 0.000000e+00
1
Step 198000
Ar 9.975611e-01 0.000000e+00 0.000000e+00
1
Step 199000
Ar 9.633709e-01 0.000000e+00 0.000000e+00
1
Step 200000
Ar 9.222551e-01 0.000000e+00 0.000000e+00
1
Step 201000
Ar 8.693792e-01 0.000000e+00 0.000000e+00
1
Step 202000
Ar 7.154399e-01 0.000000e+00 0.000000e+00
1
Step 203000
Ar 9.080513e-01 0.000000e+00 0.000000e+00
1
Step 204000
Ar 1.151266e+00 0.000000e+00 0.000000e+00
1
Step 205000
Ar 1.036641e+00 0.000000e+00 0.000000e+00
1
Step 206000
Ar 9.910981e-01 0.000000e+00 0.000000e+00
1
Step 207000
Ar 1.036718e+00 0.000000e+00 0.000000e+00
1
Step 208000
Ar 1.102375e+00 0.000000e+00 0.000000e+00
1
Step 209000
Ar 9.569897e-01 0.000000e+00 0.000000e+00
1
Step 210000
Ar 9.826772e-01 0.000000e+00 0.000000e+00
1
Step 211000
Ar 1.084459e+00 0.000000e+00 0.000000e+00
1
Step 212000
Ar 1.114824e+00 0.000000e+00 0.000000e+00
1
Step 213000
Ar 9.689049e-01 0.000000e+00 0.000000e+00
1
Step 214000
Ar 8.774320e-01 0.000000e+00 0.000000e+00
1
Step 215000
Ar 1.030734e+00 0.000000e+00 0.000000e+00
1
Step 216000
Ar 9.516048e-01 0.000000e+00 0.000000e+00
1
Step 217000
Ar 9.314998e-01 0.000000e+00 0.000000e+00
1
Step 218000
Ar 1.022241e+00 0.000000e+00 0.000000e+00
1
Step 219000
Ar 9.871165e-01 0.000000e+00 0.000000e+00
1
Step 220000
Ar 8.828341e-01 0.000000e+00 0.000000e+00
1
Step 221000
Ar 9.416660e-01 0.000000e+00 0.000000e+00
1
Step 222000
Ar 1.066726e+00 0.000000e+00 0.000000e+00
1
Step 223000
Ar 9.677693e-01 0.000000e+00 0.000000e+00
1
Step 224000
Ar 6.631879e-01 0.000000e+00 0.000000e+00
1
Step 225000
Ar 1.032227e+00 0.000000e+00 0.000000e+00
1
Step 226000
Ar 1.130736e+00 0.000000e+00 0.000000e+00
1
Step 227000
Ar 7.773766e-01 0.000000e+00 0.000000e+00
1
Step 228000
Ar 1.040789e+00 0.000000e+00 0.000000e+00
1
Step 229000
Ar 9.674870e-01 0.000000e+00 0.000000e+00
1
Step 230000
Ar 9.441926e-01 0.000000e+00 0.000000e+00
1
Step 231000
Ar 9.967991e-01 0.000000e+00 0.000000e+00
1
Step 232000
Ar 9.444129e-01 0.000000e+00 0.000000e+00
1
Step 233000
Ar 1.006814e+00 0.000000e+00 0.000000e+00
1
Step 234000
Ar 8.392708e-01 0.000000e+00 0.000000e+00
1
Step 235000
Ar 9.341444e-01 0.000000e+00 0.000000e+00
1
Step 236000
Ar 1.059617e+00 0.000000e+00 0.000000e+00
1
Step 237000
Ar 9.706869e-01 0.000000e+00 0.000000e+00
1
Step 238000
Ar 9.352393e-01 0.000000e+00 0.000000e+00
1
Step 239000
Ar 1.077646e+00 0.000000e+00 0.000000e+00
1
Step 240000
Ar 9.293183e-01 0.000000e+00 0.000000e+00
1
Step 241000
Ar 8.940998e-01 0.000000e+00 0.000000e+00
1
Step 242000
Ar 9.757613e-01 0.000000e+00 0.000000e+00
1
Step 243000
Ar 1.064348e+00 0.000000e+00 0.000000e+00
1
Step 244000
Ar 1.022042e+00 0.000000e+00 0.000000e+00
1
Step 245000
Ar 1.015619e+00 0.000000e+00 0.000000e+00
1
Step 246000
Ar 9.904166e-01 0.000000e+00 0.000000e+00
1
Step 247000
Ar 1.117558e+00 0.000000e+00 0.000000e+00
1
Step 248000
Ar 1.044633e+00 0.000000e+00 0.000000e+00
1
Step 249000
Ar 1.053732e+00 0.000000e+00 0.000000e+00
1
Step 250000
Ar 8.960811e-01 0.000000e+00 0.000000e+00
1
Step 251000
Ar 1.036136e+00 0.000000e+00 0.000000e+00
1
Step 252000
Ar 1.010443e+00 0.000000e+00 0.000000e+00
1
Step 253000
Ar 8.285821e-01 0.000000e+00 0.000000e+00
1
Step 254000
Ar 1.001849e+00 0.000000e+00 0.000000e+00
1
Step 255000
Ar 1.110290e+00 0.000000e+00 0.000000e+00
1
Step 256000
Ar 9.224177e-01 0.000000e+00 0.000000e+00
1
Step 257000
Ar 9.585250e-01 0.000000e+00 0.000000e+00
1
Step 258000
Ar 1.065213e+00 0.000000e+00 0.000000e+00
1
Step 259000
Ar 1.041987e+00 0.000000e+00 0.000000e+00
1
Step 260000
Ar 1.147695e+00 0.000000e+00 0.000000e+00
1
Step 261000
Ar 9.359353e-01 0.000000e+00 0.000000e+00
1
Step 262000
Ar 8.679112e-01 0.000000e+00 0.000000e+00
1
Step 263000
Ar 1.033252e+00 0.000000e+00 0.000000e+00
1
Step 264000
Ar 1.093299e+00 0.000000e+00 0.000000e+00
1
Step 265000
Ar 9.121439e-01 0.000000e+00 0.000000e+00
1
Step 266000
Ar 8.902842e-01 0.000000e+00 0.000000e+00
1
Step 267000
Ar 1.057706e+00 0.000000e+00 0.000000e+00
1
Step 268000
Ar 1.033993e+00 0.000000e+00 0.000000e+00
1
Step 269000
Ar 1.020393e+00 0.000000e+00 0.000000e+00
1
Step 270000
Ar 1.114162e+00 0.000000e+00 0.000000e+00
1
Step 271000
Ar 8.818281e-01 0.000000e+00 0.000000e+00
1
Step 272000
Ar 9.358210e-01 0.000000e+00 0.000000e+00
1
Step 273000
Ar 9.688750e-01 0.000000e+00 0.000000e+00
1
Step 274000
Ar 9.553438e-01 0.000000e+00 0.000000e+00
1
Step 275000
Ar 9.596808e-01 0.000000e+00 0.000000e+00
1
Step 276000
Ar 9.794023e-01 0.000000e+00 0.000000e+00
1
Step 277000
Ar 1.163287e+00 0.000000e+00 0.000000e+00
1
Step 278000
Ar 1.023588e+00 0.000000e+00 0.000000e+00
1
Step 279000
Ar 9.465936e-01 0.000000e+00 0.000000e+00
1
Step 280000
Ar 8.376921e-01 0.000000e+00 0.000000e+00
1
Step 281000
Ar 9.238680e-01 0.000000e+00 0.000000e+00
1
Step 282000
Ar 1.105283e+00 0.000000e+00 0.000000e+00
1
Step 283000
Ar 7.721229e-01 0.000000e+00 0.000000e+00
1
Step 284000
Ar 1.114021e+00 0.000000e+00 0.000000e+00
1
Step 285000
Ar 8.377584e-01 0.000000e+00 0.000000e+00
1
Step 286000
Ar 8.791910e-01 0.000000e+00 0.000000e+00
1
Step 287000
Ar 9.602935e-01 0.000000e+00 0.000000e+00
1
Step 288000
Ar 9.292668e-01 0.000000e+00 0.000000e+00
1
Step 289000
Ar 1.246518e+00 0.000000e+00 0.000000e+00
1
Step 290000
Ar 8.442058e-01 0.000000e+00 0.000000e+00
1
Step 291000
Ar 1.021634e+00 0.000000e+00 0.000000e+00
1
Step 292000
Ar 8.923749e-01 0.000000e+00 0.000000e+00
1
Step 293000
Ar 1.073797e+00 0.000000e+00 0.000000e+00
1
Step 294000
Ar 9.067135e-01 0.000000e+00 0.000000e+00
1
Step 295000
Ar 8.570137e-01 0.000000e+00 0.000000e+00
1
Step 296000
Ar 1.168635e+00 0.000000e+00 0.000000e+00
1
Step 297000
Ar 8.720665e-01 0.000000e+00 0.000000e+00
1
Step 298000
Ar 1.048552e+00 0.000000e+00 0.000000e+00
1
Step 299000
Ar 1.155592e+00 0.000000e+00 0.000000e+00
1
Step 300000
Ar 1.153212e+00 0.000000e+00 0.000000e+00
1
Step 301000
Ar 9.385885e-01 0.000000e+00 0.000000e+00
1
Step 302000
Ar 1.232209e+00 0.000000e+00 0.000000e+00
1
Step 303000
Ar 9.430077e-01 0.000000e+00 0.000000e+00
1
Step 304000
Ar 9.175307e-01 0.000000e+00 0.000000e+00
1
Step 305000
Ar 8.563054e-01 0.000000e+00 0.000000e+00
1
Step 306000
Ar 8.588886e-01 0.000000e+00 0.000000e+00
1
Step 307000
Ar 1.041443e+00 0.000000e+00 0.000000e+00
1
Step 308000
Ar 7.309217e-01 0.000000e+00 0.000000e+00
1
Step 309000
Ar 1.048548e+00 0.000000e+00 0.000000e+00
1
Step 310000
Ar 7.445150e-01 0.000000e+00 0.000000e+00
1
Step 311000
Ar 8.323365e-01 0.000000e+00 0.000000e+00
1
Step 312000
Ar 1.083982e+00 0.000000e+00 0.000000e+00
1
Step 313000
Ar 1.018662e+00 0.000000e+00 0.000000e+00
1
Step 314000
Ar 9.016528e-01 0.000000e+00 0.000000e+00
1
Step 315000
Ar 9.210134e-01 0.000000e+00 0.000000e+00
1
Step 316000
Ar 7.534883e-01 0.000000e+00 0.000000e+00
1
Step 317000
Ar 9.115607e-01 0.000000e+00 0.000000e+00
1
Step 318000
Ar 1.009494e+00 0.000000e+00 0.000000e+00
1
Step 319000
Ar 9.975320e-01 0.000000e+00 0.000000e+00
1
Step 320000
Ar 7.775005e-01 0.000000e+00 0.000000e+00
1
Step 321000
Ar 8.314798e-01 0.000000e+00 0.000000e+00
1
Step 322000
Ar 9.223209e-01 0.000000e+00 0.000000e+00
1
Step 323000
Ar 1.060612e+00 0.000000e+00 0.000000e+00
1
Step 324000
Ar 9.579990e-01 0.000000e+00 0.000000e+00
1
Step 325000
Ar 9.441162e-01 0.000000e+00 0.000000e+00
1
Step 326000
Ar 8.897425e-01 0.000000e+00 0.000000e+00
1
Step 327000
Ar 9.516139e-01 0.000000e+00 0.000000e+00
1
Step 328000
Ar 9.667549e-01 0.000000e+00 0.000000e+00
1
Step 329000
Ar 9.901372e-01 0.000000e+00 0.000000e+00
1
Step 330000
Ar 9.643705e-01 0.000000e+00 0.000000e+00
1
Step 331000
Ar 1.065873e+00 0.000000e+00 0.000000e+00
1
Step 332000
Ar 1.212211e+00 0.000000e+00 0.000000e+00
1
Step 333000
Ar 1.133205e+00 0.000000e+00 0.000000e+00
1
Step 334000
Ar 1.032465e+00 0.000000e+00 0.000000e+00
1
Step 335000
Ar 1.168360e+00 0.000000e+00 0.000000e+00
1
Step 336000
Ar 7.548264e-01 0.000000e+00 0.000000e+00
1
Step 337000
Ar 9.753915e-01 0.000000e+00 0.000000e+00
1
Step 338000
Ar 9.128140e-01 0.000000e+00 0.000000e+00
1
Step 339000
Ar 1.140524e+00 0.000000e+00 0.000000e+00
1
Step 340000
Ar 1.102196e+00 0.000000e+00 0.000000e+00
1
Step 341000
Ar 9.638227e-01 0.000000e+00 0.000000e+00
1
Step 342000
Ar 1.122042e+00 0.000000e+00 0.000000e+00
1
Step 343000
Ar 9.088248e-01 0.000000e+00 0.000000e+00
1
Step 344000
Ar 8.554574e-01 0.000000e+00 0.000000e+00
1
Step 345000
Ar 8.932188e-01 0.000000e+00 0.000000e+00
1
Step 346000
Ar 1.065399e+00 0.000000e+00 0.000000e+00
1
Step 347000
Ar 1.194260e+00 0.000000e+00 0.000000e+00
1
Step 348000
Ar 1.017351e+00 0.000000e+00 0.000000e+00
1
Step 349000
Ar 1.025630e+00 0.000000e+00 0.000000e+00
1
Step 350000
Ar 8.936442e-01 0.000000e+00 0.000000e+00
1
Step 351000
Ar 1.044734e+00 0.000000e+00 0.000000e+00
1
Step 352000
Ar 1.077219e+00 0.000000e+00 0.000000e+00
1
Step 353000
Ar 1.052081e+00 0.000000e+00 0.000000e+00
1
Step 354000
Ar 1.001838e+00 0.000000e+00 0.000000e+00
1
Step 355000
Ar 8.425224e-01 0.000000e+00 0.000000e+00
1
Step 356000
Ar 1.006302e+00 0.000000e+00 0.000000e+00
1
Step 357000
Ar 1.054226e+00 0.000000e+00 0.000000e+00
1
Step 358000
Ar 9.413160e-01 0.000000e+00 0.000000e+00
1
Step 359000
Ar 9.841927e-01 0.000000e+00 0.000000e+00
1
Step 360000
Ar 9.438101e-01 0.000000e+00 0.000000e+00
1
Step 361000
Ar 1.149411e+00 0.000000e+00 0.000000e+00
1
Step 362000
Ar 8.339758e-01 0.000000e+00 0.000000e+00
1
Step 363000
Ar 1.190026e+00 0.000000e+00 0.000000e+00
1
Step 364000
Ar 9.712444e-01 0.000000e+00 0.000000e+00
1
Step 365000
Ar 1.087133e+00 0.000000e+00 0.000000e+00
1
Step 366000
Ar 1.073086e+00 0.000000e+00 0.000000e+00
1
Step 367000
Ar 8.955184e-01 0.000000e+00 0.000000e+00
1
Step 368000
Ar 1.013647e+00 0.000000e+00 0.000000e+00
1
Step 369000
Ar 1.122335e+00 0.000000e+00 0.000000e+00
1
Step 370000
Ar 9.760415e-01 0.000000e+00 0.000000e+00
1
Step 371000
Ar 9.683641e-01 0.000000e+00 0.000000e+00
1
Step 372000
Ar 8.592047e-01 0.000000e+00 0.000000e+00
1
Step 373000
Ar 8.942599e-01 0.000000e+00 0.000000e+00
1
Step 374000
Ar 1.038774e+00 0.000000e+00 0.000000e+00
1
Step 375000
Ar 1.135431e+00 0.000000e+00 0.000000e+00
1
Step 376000
Ar 9.567061e-01 0.000000e+00 0.000000e+00
1
Step 377000
Ar 1.042600e+00 0.000000e+00 0.000000e+00
1
Step 378000
Ar 9.024029e-01 0.000000e+00 0.000000e+00
1
Step 379000
Ar 8.552679e-01 0.000000e+00 0.000000e+00
1
Step 380000
Ar 1.034876e+00 0.000000e+00 0.000000e+00
1
Step 381000
Ar 9.496343e-01 0.000000e+00 0.000000e+00
1
Step 382000
Ar 1.052920e+00 0.000000e+00 0.000000e+00
1
Step 383000
Ar 9.514194e-01 0.000000e+00 0.000000e+00
1
Step 384000
Ar 1.052036e+00 0.000000e+00 0.000000e+00
1
Step 385000
Ar 9.593882e-01 0.000000e+00 0.000000e+00
1
Step 386000
Ar 9.111809e-01 0.000000e+00 0.000000e+00
1
Step 387000
Ar 9.654759e-01 0.000000e+00 0.000000e+00
1
Step 388000
Ar 1.035345e+00 0.000000e+00 0.000000e+00
1
Step 389000
Ar 7.746665e-01 0.000000e+00 0.000000e+00
1
Step 390000
Ar 9.054800e-01 0.000000e+00 0.000000e+00
1
Step 391000
Ar 1.008856e+00 0.000000e+00 0.000000e+00
1
Step 392000
Ar 7.881376e-01 0.000000e+00 0.000000e+00
1
Step 393000
Ar 9.030737e-01 0.000000e+00 0.000000e+00
1
Step 394000
Ar 9.023123e-01 0.000000e+00 0.000000e+00
1
Step 395000
Ar 9.180242e-01 0.000000e+00 0.000000e+00
1
Step 396000
Ar 9.192564e-01 0.000000e+00 0.000000e+00
1
Step 397000
Ar 1.023511e+00 0.000000e+00 0.000000e+00
1
Step 398000
Ar 8.926462e-01 0.000000e+00 0.000000e+00
1
Step 399000
Ar 9.797860e-01 0.000000e+00 0.000000e+00
1
Step 400000
Ar 1.244236e+00 0.000000e+00 0.000000e+00
1
Step 401000
Ar 8.501942e-01 0.000000e+00 0.000000e+00
1
Step 402000
Ar 1.101408e+00 0.000000e+00 0.000000e+00
1
Step 403000
Ar 9.019963e-01 0.000000e+00 0.000000e+00
1
Step 404000
Ar 9.190471e-01 0.000000e+00 0.000000e+00
1
Step 405000
Ar 1.107023e+00 0.000000e+00 0.000000e+00
1
Step 406000
Ar 9.461058e-01 0.000000e+00 0.000000e+00
1
Step 407000
Ar 1.017264e+00 0.000000e+00 0.000000e+00
1
Step 408000
Ar 1.189758e+00 0.000000e+00 0.000000e+00
1
Step 409000
Ar 9.769645e-01 0.000000e+00 0.000000e+00
1
Step 410000
Ar 1.034701e+00 0.000000e+00 0.000000e+00
1
Step 411000
Ar 1.090530e+00 0.000000e+00 0.000000e+00
1
Step 412000
Ar 8.992935e-01 0.000000e+00 0.000000e+00
1
Step 413000
Ar 8.601073e-01 0.000000e+00 0.000000e+00
1
Step 414000
Ar 8.548858e-01 0.000000e+00 0.000000e+00
1
Step 415000
Ar 9.537936e-01 0.000000e+00 0.000000e+00
1
Step 416000
Ar 8.556932e-01 0.000000e+00 0.000000e+00
1
Step 417000
Ar 8.671080e-01 0.000000e+00 0.000000e+00
1
Step 418000
Ar 1.187181e+00 0.000000e+00 0.000000e+00
1
Step 419000
Ar 1.026371e+00 0.000000e+00 0.000000e+00
1
Step 420000
Ar 9.898642e-01 0.000000e+00 0.000000e+00
1
Step 421000
Ar 9.955920e-01 0.000000e+00 0.000000e+00
1
Step 422000
Ar 1.029984e+00 0.000000e+00 0.000000e+00
1
Step 423000
Ar 9.505072e-01 0.000000e+00 0.000000e+00
1
Step 424000
Ar 1.033345e+00 0.000000e+00 0.000000e+00
1
Step 425000
Ar 1.037142e+00 0.000000e+00 0.000000e+00
1
Step 426000
Ar 1.007526e+00 0.000000e+00 0.000000e+00
1
Step 427000
Ar 8.888266e-01 0.000000e+00 0.000000e+00
1
Step 428000
Ar 1.019319e+00 0.000000e+00 0.000000e+00
1
Step 429000
Ar 1.123231e+00 0.000000e+00 0.000000e+00
1
Step 430000
Ar 1.219971e+00 0.000000e+00 0.000000e+00
1
Step 431000
Ar 9.078580e-01 0.000000e+00 0.000000e+00
1
Step 432000
Ar 1.027744e+00 0.000000e+00 0.000000e+00
1
Step 433000
Ar 1.094366e+00 0.000000e+00 0.000000e+00
1
Step 434000
Ar 1.080112e+00 0.000000e+00 0.000000e+00
1
Step 435000
Ar 1.009843e+00 0.000000e+00 0.000000e+00
1
Step 436000
Ar 1.175758e+00 0.000000e+00 0.000000e+00
1
Step 437000
Ar 1.227373e+00 0.000000e+00 0.000000e+00
1
Step 438000
Ar 9.934401e-01 0.000000e+00 0.000000e+00
1
Step 439000
Ar 8.380166e-01 0.000000e+00 0.000000e+00
1
Step 440000
Ar 8.507835e-01 0.000000e+00 0.000000e+00
1
Step 441000
Ar 1.037014e+00 0.000000e+00 0.000000e+00
1
Step 442000
Ar 1.063594e+00 0.000000e+00 0.000000e+00
1
Step 443000
Ar 1.231456e+00 0.000000e+00 0.000000e+00
1
Step 444000
Ar 7.718523e-01 0.000000e+00 0.000000e+00
1
Step 445000
Ar 1.077782e+00 0.000000e+00 0.000000e+00
1
Step 446000
Ar 1.175902e+00 0.000000e+00 0.000000e+00
1
Step 447000
Ar 1.147132e+00 0.000000e+00 0.000000e+00
1
Step 448000
Ar 9.615397e-01 0.000000e+00 0.000000e+00
1
Step 449000
Ar 8.838183e-01 0.000000e+00 0.000000e+00
1
Step 450000
Ar 7.885694e-01 0.000000e+00 0.000000e+00
1
Step 451000
Ar 1.129448e+00 0.000000e+00 0.000000e+00
1
Step 452000
Ar 1.004327e+00 0.000000e+00 0.000000e+00
1
Step 453000
Ar 9.938251e-01 0.000000e+00 0.000000e+00
1
Step 454000
Ar 8.174329e-01 0.000000e+00 0.000000e+00
1
Step 455000
Ar 1.055244e+00 0.000000e+00 0.000000e+00
1
Step 456000
Ar 1.052519e+00 0.000000e+00 0.000000e+00
1
Step 457000
Ar 8.930229e-01 0.000000e+00 0.000000e+00
1
Step 458000
Ar 5.396652e-01 0.000000e+00 0.000000e+00
1
Step 459000
Ar 9.163234e-01 0.000000e+00 0.000000e+00
1
Step 460000
Ar 1.166844e+00 0.000000e+00 0.000000e+00
1
Step 461000
Ar 9.995927e-01 0.000000e+00 0.000000e+00
1
Step 462000
Ar 8.315436e-01 0.000000e+00 0.000000e+00
1
Step 463000
Ar 1.025653e+00 0.000000e+00 0.000000e+00
1
Step 464000
Ar 1.027321e+00 0.000000e+00 0.000000e+00
1
Step 465000
Ar 6.603258e-01 0.000000e+00 0.000000e+00
1
Step 466000
Ar 9.690650e-01 0.000000e+00 0.000000e+00
1
Step 467000
Ar 7.326556e-01 0.000000e+00 0.000000e+00
1
Step 468000
Ar 8.143033e-01 0.000000e+00 0.000000e+00
1
Step 469000
Ar 1.199581e+00 0.000000e+00 0.000000e+00
1
Step 470000
Ar 1.069989e+00 0.000000e+00 0.000000e+00
1
Step 471000
Ar 7.985602e-01 0.000000e+00 0.000000e+00
1
Step 472000
Ar 8.692720e-01 0.000000e+00 0.000000e+00
1
Step 473000
Ar 8.358067e-01 0.000000e+00 0.000000e+00
1
Step 474000
Ar 7.916777e-01 0.000000e+00 0.000000e+00
1
Step 475000
Ar 1.095925e+00 0.000000e+00 0.000000e+00
1
Step 476000
Ar 1.011353e+00 0.000000e+00 0.000000e+00
1
Step 477000
Ar 1.067635e+00 0.000000e+00 0.000000e+00
1
Step 478000
Ar 8.898321e-01 0.000000e+00 0.000000e+00
1
Step 479000
Ar 9.832703e-01 0.000000e+00 0.000000e+00
1
Step 480000
Ar 1.086837e+00 0.000000e+00 0.000000e+00
1
Step 481000
Ar 1.102339e+00 0.000000e+00 0.000000e+00
1
Step 482000
Ar 1.007850e+00 0.000000e+00 0.000000e+00
1
Step 483000
Ar 8.274679e-01 0.000000e+00 0.000000e+00
1
Step 484000
Ar 1.087174e+00 0.000000e+00 0.000000e+00
1
Step 485000
Ar 1.091700e+00 0.000000e+00 0.000000e+00
1
Step 486000
Ar 1.055793e+00 0.000000e+00 0.000000e+00
1
Step 487000
Ar 9.579250e-01 0.000000e+00 0.000000e+00
1
Step 488000
Ar 8.196102e-01 0.000000e+00 0.000000e+00
1
Step 489000
Ar 1.086249e+00 0.000000e+00 0.000000e+00
1
Step 490000
Ar 9.601391e-01 0.000000e+00 0.000000e+00
1
Step 491000
Ar 9.399380e-01 0.000000e+00 0.000000e+00
1
Step 492000
Ar 1.033949e+00 0.000000e+00 0.000000e+00
1
Step 493000
Ar 9.123090e-01 0.000000e+00 0.000000e+00
1
Step 494000
Ar 9.014382e-01 0.000000e+00 0.000000e+00
1
Step 495000
Ar 1.029644e+00 0.000000e+00 0.000000e+00
1
Step 496000
Ar 8.976617e-01 0.000000e+00 0.000000e+00
1
Step 497000
Ar 9.832116e-01 0.000000e+00 0.000000e+00
1
Step 498000
Ar 1.013688e+00 0.000000e+00 0.000000e+00
1
Step 499000
Ar 8.753536e-01 0.000000e+00 0.000000e+00
1
Step 500000
Ar 1.085801e+00 0.000000e+00 0.000000e+00
1
Step 501000
Ar 9.696948e-01 0.000000e+00 0.000000e+00
1
Step 502000
Ar 9.612818e-01 0.000000e+00 0.000000e+00
1
Step 503000
Ar 1.069610e+00 0.000000e+00 0.000000e+00
1
Step 504000
Ar 9.878769e-01 0.000000e+00 0.000000e+00
1
Step 505000
Ar 1.036939e+00 0.000000e+00 0.000000e+00
1
Step 506000
Ar 9.499149e-01 0.000000e+00 0.000000e+00
1
Step 507000
Ar 1.027500e+00 0.000000e+00 0.000000e+00
1
Step 508000
Ar 9.679877e-01 0.000000e+00 0.000000e+00
1
Step 509000
Ar 7.890073e-01 0.000000e+00 0.000000e+00
1
Step 510000
Ar 1.130676e+00 0.000000e+00 0.000000e+00
1
Step 511000
Ar 1.029426e+00 0.000000e+00 0.000000e+00
1
Step 512000
Ar 1.092980e+00 0.000000e+00 0.000000e+00
1
Step 513000
Ar 1.119073e+00 0.000000e+00 0.000000e+00
1
Step 514000
Ar 1.179683e+00 0.000000e+00 0.000000e+00
1
Step 515000
Ar 1.043724e+00 0.000000e+00 0.000000e+00
1
Step 516000
Ar 1.008428e+00 0.000000e+00 0.000000e+00
1
Step 517000
Ar 8.713515e-01 0.000000e+00 0.000000e+00
1
Step 518000
Ar 1.017761e+00 0.000000e+00 0.000000e+00
1
Step 519000
Ar 1.077545e+00 0.000000e+00 0.000000e+00
1
Step 520000
Ar 1.007309e+00 0.000000e+00 0.000000e+00
1
Step 521000
Ar 8.540360e-01 0.000000e+00 0.000000e+00
1
Step 522000
Ar 9.263536e-01 0.000000e+00 0.000000e+00
1
Step 523000
Ar 9.192783e-01 0.000000e+00 0.000000e+00
1
Step 524000
Ar 1.069745e+00 0.000000e+00 0.000000e+00
1
Step 525000
Ar 1.157067e+00 0.000000e+00 0.000000e+00
1
Step 526000
Ar 1.190414e+00 0.000000e+00 0.000000e+00
1
Step 527000
Ar 1.136075e+00 0.000000e+00 0.000000e+00
1
Step 528000
Ar 7.978441e-01 0.000000e+00 0.000000e+00
1
Step 529000
Ar 1.188767e+00 0.000000e+00 0.000000e+00
1
Step 530000
Ar 1.042395e+00 0.000000e+00 0.000000e+00
1
Step 531000
Ar 1.000897e+00 0.000000e+00 0.000000e+00
1
Step 532000
Ar 9.208556e-01 0.000000e+00 0.000000e+00
1
Step 533000
Ar 1.033931e+00 0.000000e+00 0.000000e+00
1
Step 534000
Ar 1.021947e+00 0.000000e+00 0.000000e+00
1
Step 535000
Ar 1.161202e+00 0.000000e+00 0.000000e+00
1
Step 536000
Ar 9.126685e-01 0.000000e+00 0.000000e+00
1
Step 537000
Ar 8.808943e-01 0.000000e+00 0.000000e+00
1
Step 538000
Ar 1.109159e+00 0.000000e+00 0.000000e+00
1
Step 539000
Ar 1.231237e+00 0.000000e+00 0.000000e+00
1
Step 540000
Ar 9.551411e-01 0.000000e+00 0.000000e+00
1
Step 541000
Ar 1.149254e+00 0.000000e+00 0.000000e+00
1
Step 542000
Ar 9.373826e-01 0.000000e+00 0.000000e+00
1
Step 543000
Ar 1.042782e+00 0.000000e+00 0.000000e+00
1
Step 544000
Ar 8.545534e-01 0.000000e+00 0.000000e+00
1
Step 545000
Ar 1.213293e+00 0.000000e+00 0.000000e+00
1
Step 546000
Ar 1.141191e+00 0.000000e+00 0.000000e+00
1
Step 547000
Ar 1.162258e+00 0.000000e+00 0.000000e+00
1
Step 548000
Ar 9.630362e-01 0.000000e+00 0.000000e+00
1
Step 549000
Ar 7.160018e-01 0.000000e+00 0.000000e+00
1
Step 550000
Ar 9.813242e-01 0.000000e+00 0.000000e+00
1
Step 551000
Ar 1.204447e+00 0.000000e+00 0.000000e+00
1
Step 552000
Ar 9.656352e-01 0.000000e+00 0.000000e+00
1
Step 553000
Ar 1.106285e+00 0.000000e+00 0.000000e+00
1
Step 554000
Ar 9.055621e-01 0.000000e+00 0.000000e+00
1
Step 555000
Ar 9.143512e-01 0.000000e+00 0.000000e+00
1
Step 556000
Ar 8.658060e-01 0.000000e+00 0.000000e+00
1
Step 557000
Ar 9.152580e-01 0.000000e+00 0.000000e+00
1
Step 558000
Ar 8.991315e-01 0.000000e+00 0.000000e+00
1
Step 559000
Ar 1.094716e+00 0.000000e+00 0.000000e+00
1
Step 560000
Ar 8.044983e-01 0.000000e+00 0.000000e+00
1
Step 561000
Ar 8.540130e-01 0.000000e+00 0.000000e+00
1
Step 562000
Ar 1.116241e+00 0.000000e+00 0.000000e+00
1
Step 563000
Ar 9.945565e-01 0.000000e+00 0.000000e+00
1
Step 564000
Ar 1.242577e+00 0.000000e+00 0.000000e+00
1
Step 565000
Ar 9.873510e-01 0.000000e+00 0.000000e+00
1
Step 566000
Ar 7.945366e-01 0.000000e+00 0.000000e+00
1
Step 567000
Ar 8.988680e-01 0.000000e+00 0.000000e+00
1
Step 568000
Ar 7.420802e-01 0.000000e+00 0.000000e+00
1
Step 569000
Ar 9.553922e-01 0.000000e+00 0.000000e+00
1
Step 570000
Ar 9.366539e-01 0.000000e+00 0.000000e+00
1
Step 571000
Ar 1.052346e+00 0.000000e+00 0.000000e+00
1
Step 572000
Ar 1.088606e+00 0.000000e+00 0.000000e+00
1
Step 573000
Ar 9.295054e-01 0.000000e+00 0.000000e+00
1
Step 574000
Ar 9.401495e-01 0.000000e+00 0.000000e+00
1
Step 575000
Ar 9.315125e-01 0.000000e+00 0.000000e+00
1
Step 576000
Ar 1.130084e+00 0.000000e+00 0.000000e+00
1
Step 577000
Ar 9.751057e-01 0.000000e+00 0.000000e+00
1
Step 578000
Ar 9.377565e-01 0.000000e+00 0.000000e+00
1
Step 579000
Ar 9.659910e-01 0.000000e+00 0.000000e+00
1
Step 580000
Ar 1.066200e+00 0.000000e+00 0.000000e+00
1
Step 581000
Ar 1.129646e+00 0.000000e+00 0.000000e+00
1
Step 582000
Ar 1.073462e+00 0.000000e+00 0.000000e+00
1
Step 583000
Ar 1.155088e+00 0.000000e+00 0.000000e+00
1
Step 584000
Ar 1.023891e+00 0.000000e+00 0.000000e+00
1
Step 585000
Ar 1.107598e+00 0.000000e+00 0.000000e+00
1
Step 586000
Ar 9.349111e-01 0.000000e+00 0.000000e+00
1
Step 587000
Ar 1.071158e+00 0.000000e+00 0.000000e+00
1
Step 588000
Ar 9.941695e-01 0.000000e+00 0.000000e+00
1
Step 589000
Ar 1.014358e+00 0.000000e+00 0.000000e+00
1
Step 590000
Ar 9.186038e-01 0.000000e+00 0.000000e+00
1
Step 591000
Ar 1.111025e+00 0.000000e+00 0.000000e+00
1
Step 592000
Ar 1.187799e+00 0.000000e+00 0.000000e+00
1
Step 593000
Ar 1.061276e+00 0.000000e+00 0.000000e+00
1
Step 594000
Ar 1.112689e+00 0.000000e+00 0.000000e+00
1
Step 595000
Ar 9.095741e-01 0.000000e+00 0.000000e+00
1
Step 596000
Ar 1.062452e+00 0.000000e+00 0.000000e+00
1
Step 597000
Ar 1.205332e+00 0.000000e+00 0.000000e+00
1
Step 598000
Ar 9.440973e-01 0.000000e+00 0.000000e+00
1
Step 599000
Ar 1.103284e+00 0.000000e+00 0.000000e+00
1
Step 600000
Ar 8.612248e-01 0.000000e+00 0.000000e+00
1
Step 601000
Ar 9.754695e-01 0.000000e+00 0.000000e+00
1
Step 602000
Ar 8.592339e-01 0.000000e+00 0.000000e+00
1
Step 603000
Ar 1.015537e+00 0.000000e+00 0.000000e+00
1
Step 604000
Ar 9.198739e-01 0.000000e+00 0.000000e+00
1
Step 605000
Ar 1.134921e+00 0.000000e+00 0.000000e+00
1
Step 606000
Ar 1.054342e+00 0.000000e+00 0.000000e+00
1
Step 607000
Ar 8.769101e-01 0.000000e+00 0.000000e+00
1
Step 608000
Ar 9.517175e-01 0.000000e+00 0.000000e+00
1
Step 609000
Ar 7.877090e-01 0.000000e+00 0.000000e+00
1
Step 610000
Ar 1.090376e+00 0.000000e+00 0.000000e+00
1
Step 611000
Ar 1.040382e+00 0.000000e+00 0.000000e+00
1
Step 612000
Ar 1.108665e+00 0.000000e+00 0.000000e+00
1
Step 613000
Ar 1.116899e+00 0.000000e+00 0.000000e+00
1
Step 614000
Ar 1.029285e+00 0.000000e+00 0.000000e+00
1
Step 615000
Ar 9.017803e-01 0.000000e+00 0.000000e+00
1
Step 616000
Ar 8.757969e-01 0.000000e+00 0.000000e+00
1
Step 617000
Ar 8.582574e-01 0.000000e+00 0.000000e+00
1
Step 618000
Ar 9.478346e-01 0.000000e+00 0.000000e+00
1
Step 619000
Ar 9.597054e-01 0.000000e+00 0.000000e+00
1
Step 620000
Ar 9.995828e-01 0.000000e+00 0.000000e+00
1
Step 621000
Ar 7.416397e-01 0.000000e+00 0.000000e+00
1
Step 622000
Ar 1.024884e+00 0.000000e+00 0.000000e+00
1
Step 623000
Ar 1.081627e+00 0.000000e+00 0.000000e+00
1
Step 624000
Ar 1.045100e+00 0.000000e+00 0.000000e+00
1
Step 625000
Ar 1.075918e+00 0.000000e+00 0.000000e+00
1
Step 626000
Ar 1.089061e+00 0.000000e+00 0.000000e+00
1
Step 627000
Ar 9.411844e-01 0.000000e+00 0.000000e+00
1
Step 628000
Ar 8.524814e-01 0.000000e+00 0.000000e+00
1
Step 629000
Ar 9.603474e-01 0.000000e+00 0.000000e+00
1
Step 630000
Ar 9.347391e-01 0.000000e+00 0.000000e+00
1
Step 631000
Ar 9.682791e-01 0.000000e+00 0.000000e+00
1
Step 632000
Ar 8.256325e-01 0.000000e+00 0.000000e+00
1
Step 633000
Ar 1.014210e+00 0.000000e+00 0.000000e+00
1
Step 634000
Ar 1.078864e+00 0.000000e+00 0.000000e+00
1
Step 635000
Ar 1.034415e+00 0.000000e+00 0.000000e+00
1
Step 636000
Ar 9.892517e-01 0.000000e+00 0.000000e+00
1
Step 637000
Ar 1.031596e+00 0.000000e+00 0.000000e+00
1
Step 638000
Ar 9.494517e-01 0.000000e+00 0.000000e+00
1
Step 639000
Ar 1.154372e+00 0.000000e+00 0.000000e+00
1
Step 640000
Ar 7.915576e-01 0.000000e+00 0.000000e+00
1
Step 641000
Ar 9.247405e-01 0.000000e+00 0.000000e+00
1
Step 642000
Ar 1.045476e+00 0.000000e+00 0.000000e+00
1
Step 643000
Ar 9.752087e-01 0.000000e+00 0.000000e+00
1
Step 644000
Ar 1.104366e+00 0.000000e+00 0.000000e+00
1
Step 645000
Ar 8.835664e-01 0.000000e+00 0.000000e+00
1
Step 646000
Ar 8.885380e-01 0.000000e+00 0.000000e+00
1
Step 647000
Ar 9.796746e-01 0.000000e+00 0.000000e+00
1
Step 648000
Ar 1.009073e+00 0.000000e+00 0.000000e+00
1
Step 649000
Ar 1.050027e+00 0.000000e+00 0.000000e+00
1
Step 650000
Ar 1.041878e+00 0.000000e+00 0.000000e+00
1
Step 651000
Ar 9.171344e-01 0.000000e+00 0.000000e+00
1
Step 652000
Ar 9.314822e-01 0.000000e+00 0.000000e+00
1
Step 653000
Ar 9.486956e-01 0.000000e+00 0.000000e+00
1
Step 654000
Ar 7.230132e-01 0.000000e+00 0.000000e+00
1
Step 655000
Ar 1.064468e+00 0.000000e+00 0.000000e+00
1
Step 656000
Ar 1.173897e+00 0.000000e+00 0.000000e+00
1
Step 657000
Ar 9.449952e-01 0.000000e+00 0.000000e+00
1
Step 658000
Ar 9.649215e-01 0.000000e+00 0.000000e+00
1
Step 659000
Ar 7.221565e-01 0.000000e+00 0.000000e+00
1
Step 660000
Ar 1.090285e+00 0.000000e+00 0.000000e+00
1
Step 661000
Ar 9.973847e-01 0.000000e+00 0.000000e+00
1
Step 662000
Ar 9.715097e-01 0.000000e+00 0.000000e+00
1
Step 663000
Ar 1.013939e+00 0.000000e+00 0.000000e+00
1
Step 664000
Ar 9.951259e-01 0.000000e+00 0.000000e+00
1
Step 665000
Ar 7.905253e-01 0.000000e+00 0.000000e+00
1
Step 666000
Ar 7.844724e-01 0.000000e+00 0.000000e+00
1
Step 667000
Ar 1.058997e+00 0.000000e+00 0.000000e+00
1
Step 668000
Ar 9.057897e-01 0.000000e+00 0.000000e+00
1
Step 669000
Ar 8.970711e-01 0.000000e+00 0.000000e+00
1
Step 670000
Ar 1.021473e+00 0.000000e+00 0.000000e+00
1
Step 671000
Ar 9.514965e-01 0.000000e+00 0.000000e+00
1
Step 672000
Ar 7.495446e-01 0.000000e+00 0.000000e+00
1
Step 673000
Ar 9.505105e-01 0.000000e+00 0.000000e+00
1
Step 674000
Ar 7.426491e-01 0.000000e+00 0.000000e+00
1
Step 675000
Ar 1.102523e+00 0.000000e+00 0.000000e+00
1
Step 676000
Ar 8.777445e-01 0.000000e+00 0.000000e+00
1
Step 677000
Ar 1.108663e+00 0.000000e+00 0.000000e+00
1
Step 678000
Ar 1.013348e+00 0.000000e+00 0.000000e+00
1
Step 679000
Ar 9.246956e-01 0.000000e+00 0.000000e+00
1
Step 680000
Ar 1.001138e+00 0.000000e+00 0.000000e+00
1
Step 681000
Ar 1.147183e+00 0.000000e+00 0.000000e+00
1
Step 682000
Ar 8.241551e-01 0.000000e+00 0.000000e+00
1
Step 683000
Ar 1.071567e+00 0.000000e+00 0.000000e+00
1
Step 684000
Ar 1.115291e+00 0.000000e+00 0.000000e+00
1
Step 685000
Ar 7.999622e-01 0.000000e+00 0.000000e+00
1
Step 686000
Ar 8.369989e-01 0.000000e+00 0.000000e+00
1
Step 687000
Ar 9.312011e-01 0.000000e+00 0.000000e+00
1
Step 688000
Ar 9.985688e-01 0.000000e+00 0.000000e+00
1
Step 689000
Ar 9.381978e-01 0.000000e+00 0.000000e+00
1
Step 690000
Ar 1.097189e+00 0.000000e+00 0.000000e+00
1
Step 691000
Ar 1.094058e+00 0.000000e+00 0.000000e+00
1
Step 692000
Ar 1.082472e+00 0.000000e+00 0.000000e+00
1
Step 693000
Ar 7.884364e-01 0.000000e+00 0.000000e+00
1
Step 694000
Ar 1.053206e+00 0.000000e+00 0.000000e+00
1
Step 695000
Ar 1.186342e+00 0.000000e+00 0.000000e+00
1
Step 696000
Ar 9.197387e-01 0.000000e+00 0.000000e+00
1
Step 697000
Ar 7.494222e-01 0.000000e+00 0.000000e+00
1
Step 698000
Ar 8.378206e-01 0.000000e+00 0.000000e+00
1
Step 699000
Ar 9.525627e-01 0.000000e+00 0.000000e+00
1
Step 700000
Ar 1.094121e+00 0.000000e+00 0.000000e+00
1
Step 701000
Ar 1.026198e+00 0.000000e+00 0.000000e+00
1
Step 702000
Ar 1.071968e+00 0.000000e+00 0.000000e+00
1
Step 703000
Ar 8.275259e-01 0.000000e+00 0.000000e+00
1
Step 704000
Ar 7.368700e-01 0.000000e+00 0.000000e+00
1
Step 705000
Ar 1.038673e+00 0.000000e+00 0.000000e+00
1
Step 706000
Ar 1.044417e+00 0.000000e+00 0.000000e+00
1
Step 707000
Ar 9.723578e-01 0.000000e+00 0.000000e+00
1
Step 708000
Ar 1.108819e+00 0.000000e+00 0.000000e+00
1
Step 709000
Ar 1.087664e+00 0.000000e+00 0.000000e+00
1
Step 710000
Ar 1.048747e+00 0.000000e+00 0.000000e+00
1
Step 711000
Ar 9.462352e-01 0.000000e+00 0.000000e+00
1
Step 712000
Ar 1.100896e+00 0.000000e+00 0.000000e+00
1
Step 713000
Ar 7.741850e-01 0.000000e+00 0.000000e+00
1
Step 714000
Ar 1.084655e+00 0.000000e+00 0.000000e+00
1
Step 715000
Ar 9.610767e-01 0.000000e+00 0.000000e+00
1
Step 716000
Ar 1.029098e+00 0.000000e+00 0.000000e+00
1
Step 717000
Ar 8.321995e-01 0.000000e+00 0.000000e+00
1
Step 718000
Ar 9.092010e-01 0.000000e+00 0.000000e+00
1
Step 719000
Ar 9.967531e-01 0.000000e+00 0.000000e+00
1
Step 720000
Ar 1.076459e+00 0.000000e+00 0.000000e+00
1
Step 721000
Ar 7.225978e-01 0.000000e+00 0.000000e+00
1
Step 722000
Ar 9.491006e-01 0.000000e+00 0.000000e+00
1
Step 723000
Ar 1.005497e+00 0.000000e+00 0.000000e+00
1
Step 724000
Ar 9.535778e-01 0.000000e+00 0.000000e+00
1
Step 725000
Ar 7.774239e-01 0.000000e+00 0.000000e+00
1
Step 726000
Ar 9.131453e-01 0.000000e+00 0.000000e+00
1
Step 727000
Ar 9.868802e-01 0.000000e+00 0.000000e+00
1
Step 728000
Ar 1.079481e+00 0.000000e+00 0.000000e+00
1
Step 729000
Ar 9.347853e-01 0.000000e+00 0.000000e+00
1
Step 730000
Ar 9.940904e-01 0.000000e+00 0.000000e+00
1
Step 731000
Ar 1.051593e+00 0.000000e+00 0.000000e+00
1
Step 732000
Ar 8.933601e-01 0.000000e+00 0.000000e+00
1
Step 733000
Ar 1.051929e+00 0.000000e+00 0.000000e+00
1
Step 734000
Ar 9.129869e-01 0.000000e+00 0.000000e+00
1
Step 735000
Ar 8.182043e-01 0.000000e+00 0.000000e+00
1
Step 736000
Ar 1.061985e+00 0.000000e+00 0.000000e+00
1
Step 737000
Ar 9.120551e-01 0.000000e+00 0.000000e+00
1
Step 738000
Ar 1.012976e+00 0.000000e+00 0.000000e+00
1
Step 739000
Ar 1.000524e+00 0.000000e+00 0.000000e+00
1
Step 740000
Ar 1.016100e+00 0.000000e+00 0.000000e+00
1
Step 741000
Ar 8.707150e-01 0.000000e+00 0.000000e+00
1
Step 742000
Ar 8.470385e-01 0.000000e+00 0.000000e+00
1
Step 743000
Ar 1.051656e+00 0.000000e+00 0.000000e+00
1
Step 744000
Ar 8.683665e-01 0.000000e+00 0.000000e+00
1
Step 745000
Ar 1.051874e+00 0.000000e+00 0.000000e+00
1
Step 746000
Ar 9.434531e-01 0.000000e+00 0.000000e+00
1
Step 747000
Ar 1.029594e+00 0.000000e+00 0.000000e+00
1
Step 748000
Ar 9.246219e-01 0.000000e+00 0.000000e+00
1
Step 749000
Ar 8.733249e-01 0.000000e+00 0.000000e+00
1
Step 750000
Ar 1.113017e+00 0.000000e+00 0.000000e+00
1
Step 751000
Ar 1.108459e+00 0.000000e+00 0.000000e+00
1
Step 752000
Ar 1.089462e+00 0.000000e+00 0.000000e+00
1
Step 753000
Ar 1.171499e+00 0.000000e+00 0.000000e+00
1
Step 754000
Ar 8.988602e-01 0.000000e+00 0.000000e+00
1
Step 755000
Ar 1.073625e+00 0.000000e+00 0.000000e+00
1
Step 756000
Ar 9.169645e-01 0.000000e+00 0.000000e+00
1
Step 757000
Ar 9.873094e-01 0.000000e+00 0.000000e+00
1
Step 758000
Ar 1.059633e+00 0.000000e+00 0.000000e+00
1
Step 759000
Ar 9.333695e-01 0.000000e+00 0.000000e+00
1
Step 760000
Ar 1.068575e+00 0.000000e+00 0.000000e+00
1
Step 761000
Ar 1.137370e+00 0.000000e+00 0.000000e+00
1
Step 762000
Ar 1.240043e+00 0.000000e+00 0.000000e+00
1
Step 763000
Ar 9.632062e-01 0.000000e+00 0.000000e+00
1
Step 764000
Ar 9.291271e-01 0.000000e+00 0.000000e+00
1
Step 765000
Ar 1.044075e+00 0.000000e+00 0.000000e+00
1
Step 766000
Ar 1.067962e+00 0.000000e+00 0.000000e+00
1
Step 767000
Ar 1.036530e+00 0.000000e+00 0.000000e+00
1
Step 768000
Ar 9.616675e-01 0.000000e+00 0.000000e+00
1
Step 769000
Ar 9.533776e-01 0.000000e+00 0.000000e+00
1
Step 770000
Ar 6.996570e-01 0.000000e+00 0.000000e+00
1
Step 771000
Ar 1.086369e+00 0.000000e+00 0.000000e+00
1
Step 772000
Ar 9.355976e-01 0.000000e+00 0.000000e+00
1
Step 773000
Ar 1.014062e+00 0.000000e+00 0.000000e+00
1
Step 774000
Ar 1.129844e+00 0.000000e+00 0.000000e+00
1
Step 775000
Ar 9.907638e-01 0.000000e+00 0.000000e+00
1
Step 776000
Ar 9.566427e-01 0.000000e+00 0.000000e+00
1
Step 777000
Ar 1.023759e+00 0.000000e+00 0.000000e+00
1
Step 778000
Ar 1.087886e+00 0.000000e+00 0.000000e+00
1
Step 779000
Ar 9.042024e-01 0.000000e+00 0.000000e+00
1
Step 780000
Ar 9.939900e-01 0.000000e+00 0.000000e+00
1
Step 781000
Ar 9.953964e-01 0.000000e+00 0.000000e+00
1
Step 782000
Ar 8.297735e-01 0.000000e+00 0.000000e+00
1
Step 783000
Ar 9.633830e-01 0.000000e+00 0.000000e+00
1
Step 784000
Ar 9.963849e-01 0.000000e+00 0.000000e+00
1
Step 785000
Ar 1.045514e+00 0.000000e+00 0.000000e+00
1
Step 786000
Ar 9.935166e-01 0.000000e+00 0.000000e+00
1
Step 787000
Ar 1.001575e+00 0.000000e+00 0.000000e+00
1
Step 788000
Ar 8.961027e-01 0.000000e+00 0.000000e+00
1
Step 789000
Ar 1.073284e+00 0.000000e+00 0.000000e+00
1
Step 790000
Ar 1.130367e+00 0.000000e+00 0.000000e+00
1
Step 791000
Ar 1.016364e+00 0.000000e+00 0.000000e+00
1
Step 792000
Ar 8.367266e-01 0.000000e+00 0.000000e+00
1
Step 793000
Ar 9.411043e-01 0.000000e+00 0.000000e+00
1
Step 794000
Ar 1.040047e+00 0.000000e+00 0.000000e+00
1
Step 795000
Ar 7.675435e-01 0.000000e+00 0.000000e+00
1
Step 796000
Ar 1.017593e+00 0.000000e+00 0.000000e+00
1
Step 797000
Ar 8.231954e-01 0.000000e+00 0.000000e+00
1
Step 798000
Ar 9.875526e-01 0.000000e+00 0.000000e+00
1
Step 799000
Ar 1.115800e+00 0.000000e+00 0.000000e+00
1
Step 800000
Ar 9.453432e-01 0.000000e+00 0.000000e+00
1
Step 801000
Ar 1.004615e+00 0.000000e+00 0.000000e+00
1
Step 802000
Ar 9.192888e-01 0.000000e+00 0.000000e+00
1
Step 803000
Ar 9.779633e-01 0.000000e+00 0.000000e+00
1
Step 804000
Ar 7.031748e-01 0.000000e+00 0.000000e+00
1
Step 805000
Ar 1.031359e+00 0.000000e+00 0.000000e+00
1
Step 806000
Ar 1.185092e+00 0.000000e+00 0.000000e+00
1
Step 807000
Ar 8.042225e-01 0.000000e+00 0.000000e+00
1
Step 808000
Ar 9.685967e-01 0.000000e+00 0.000000e+00
1
Step 809000
Ar 9.629679e-01 0.000000e+00 0.000000e+00
1
Step 810000
Ar 1.137088e+00 0.000000e+00 0.000000e+00
1
Step 811000
Ar 9.517772e-01 0.000000e+00 0.000000e+00
1
Step 812000
Ar 9.500726e-01 0.000000e+00 0.000000e+00
1
Step 813000
Ar 1.065061e+00 0.000000e+00 0.000000e+00
1
Step 814000
Ar 1.203476e+00 0.000000e+00 0.000000e+00
1
Step 815000
Ar 1.038512e+00 0.000000e+00 0.000000e+00
1
Step 816000
Ar 9.194064e-01 0.000000e+00 0.000000e+00
1
Step 817000
Ar 1.060459e+00 0.000000e+00 0.000000e+00
1
Step 818000
Ar 7.877915e-01 0.000000e+00 0.000000e+00
1
Step 819000
Ar 8.599804e-01 0.000000e+00 0.000000e+00
1
Step 820000
Ar 8.579246e-01 0.000000e+00 0.000000e+00
1
Step 821000
Ar 8.438479e-01 0.000000e+00 0.000000e+00
1
Step 822000
Ar 8.654386e-01 0.000000e+00 0.000000e+00
1
Step 823000
Ar 1.042783e+00 0.000000e+00 0.000000e+00
1
Step 824000
Ar 1.066383e+00 0.000000e+00 0.000000e+00
1
Step 825000
Ar 1.006894e+00 0.000000e+00 0.000000e+00
1
Step 826000
Ar 1.057900e+00 0.000000e+00 0.000000e+00
1
Step 827000
Ar 1.009935e+00 0.000000e+00 0.000000e+00
1
Step 828000
Ar 9.435138e-01 0.000000e+00 0.000000e+00
1
Step 829000
Ar 1.044565e+00 0.000000e+00 0.000000e+00
1
Step 830000
Ar 1.102727e+00 0.000000e+00 0.000000e+00
1
Step 831000
Ar 8.618003e-01 0.000000e+00 0.000000e+00
1
Step 832000
Ar 1.013008e+00 0.000000e+00 0.000000e+00
1
Step 833000
Ar 1.071490e+00 0.000000e+00 0.000000e+00
1
Step 834000
Ar 8.544722e-01 0.000000e+00 0.000000e+00
1
Step 835000
Ar 1.070595e+00 0.000000e+00 0.000000e+00
1
Step 836000
Ar 1.152778e+00 0.000000e+00 0.000000e+00
1
Step 837000
Ar 1.000569e+00 0.000000e+00 0.000000e+00
1
Step 838000
Ar 9.239185e-01 0.000000e+00 0.000000e+00
1
Step 839000
Ar 9.809307e-01 0.000000e+00 0.000000e+00
1
Step 840000
Ar 1.123088e+00 0.000000e+00 0.000000e+00
1
Step 841000
Ar 9.167106e-01 0.000000e+00 0.000000e+00
1
Step 842000
Ar 5.589591e-01 0.000000e+00 0.000000e+00
1
Step 843000
Ar 1.000816e+00 0.000000e+00 0.000000e+00
1
Step 844000
Ar 9.581321e-01 0.000000e+00 0.000000e+00
1
Step 845000
Ar 1.092429e+00 0.000000e+00 0.000000e+00
1
Step 846000
Ar 9.666078e-01 0.000000e+00 0.000000e+00
1
Step 847000
Ar 1.048367e+00 0.000000e+00 0.000000e+00
1
Step 848000
Ar 9.950349e-01 0.000000e+00 0.000000e+00
1
Step 849000
Ar 8.416775e-01 0.000000e+00 0.000000e+00
1
Step 850000
Ar 9.291709e-01 0.000000e+00 0.000000e+00
1
Step 851000
Ar 1.059801e+00 0.000000e+00 0.000000e+00
1
Step 852000
Ar 9.817552e-01 0.000000e+00 0.000000e+00
1
Step 853000
Ar 6.585434e-01 0.000000e+00 0.000000e+00
1
Step 854000
Ar 1.001545e+00 0.000000e+00 0.000000e+00
1
Step 855000
Ar 8.952835e-01 0.000000e+00 0.000000e+00
1
Step 856000
Ar 1.004179e+00 0.000000e+00 0.000000e+00
1
Step 857000
Ar 1.022397e+00 0.000000e+00 0.000000e+00
1
Step 858000
Ar 8.328011e-01 0.000000e+00 0.000000e+00
1
Step 859000
Ar 8.953609e-01 0.000000e+00 0.000000e+00
1
Step 860000
Ar 1.102534e+00 0.000000e+00 0.000000e+00
1
Step 861000
Ar 9.764538e-01 0.000000e+00 0.000000e+00
1
Step 862000
Ar 1.051644e+00 0.000000e+00 0.000000e+00
1
Step 863000
Ar 9.161667e-01 0.000000e+00 0.000000e+00
1
Step 864000
Ar 9.108033e-01 0.000000e+00 0.000000e+00
1
Step 865000
Ar 1.001319e+00 0.000000e+00 0.000000e+00
1
Step 866000
Ar 1.221518e+00 0.000000e+00 0.000000e+00
1
Step 867000
Ar 1.007731e+00 0.000000e+00 0.000000e+00
1
Step 868000
Ar 1.058197e+00 0.000000e+00 0.000000e+00
1
Step 869000
Ar 1.113157e+00 0.000000e+00 0.000000e+00
1
Step 870000
Ar 9.625790e-01 0.000000e+00 0.000000e+00
1
Step 871000
Ar 9.717971e-01 0.000000e+00 0.000000e+00
1
Step 872000
Ar 1.028849e+00 0.000000e+00 0.000000e+00
1
Step 873000
Ar 9.359936e-01 0.000000e+00 0.000000e+00
1
Step 874000
Ar 9.086449e-01 0.000000e+00 0.000000e+00
1
Step 875000
Ar 1.096525e+00 0.000000e+00 0.000000e+00
1
Step 876000
Ar 8.077308e-01 0.000000e+00 0.000000e+00
1
Step 877000
Ar 7.570213e-01 0.000000e+00 0.000000e+00
1
Step 878000
Ar 1.057125e+00 0.000000e+00 0.000000e+00
1
Step 879000
Ar 9.427233e-01 0.000000e+00 0.000000e+00
1
Step 880000
Ar 1.155731e+00 0.000000e+00 0.000000e+00
1
Step 881000
Ar 9.504084e-01 0.000000e+00 0.000000e+00
1
Step 882000
Ar 1.018364e+00 0.000000e+00 0.000000e+00
1
Step 883000
Ar 9.156138e-01 0.000000e+00 0.000000e+00
1
Step 884000
Ar 9.589575e-01 0.000000e+00 0.000000e+00
1
Step 885000
Ar 9.828226e-01 0.000000e+00 0.000000e+00
1
Step 886000
Ar 1.008203e+00 0.000000e+00 0.000000e+00
1
Step 887000
Ar 1.145698e+00 0.000000e+00 0.000000e+00
1
Step 888000
Ar 8.133025e-01 0.000000e+00 0.000000e+00
1
Step 889000
Ar 6.977308e-01 0.000000e+00 0.000000e+00
1
Step 890000
Ar 9.888159e-01 0.000000e+00 0.000000e+00
1
Step 891000
Ar 9.327472e-01 0.000000e+00 0.000000e+00
1
Step 892000
Ar 8.130198e-01 0.000000e+00 0.000000e+00
1
Step 893000
Ar 1.056098e+00 0.000000e+00 0.000000e+00
1
Step 894000
Ar 8.651964e-01 0.000000e+00 0.000000e+00
1
Step 895000
Ar 1.102122e+00 0.000000e+00 0.000000e+00
1
Step 896000
Ar 9.637936e-01 0.000000e+00 0.000000e+00
1
Step 897000
Ar 9.244124e-01 0.000000e+00 0.000000e+00
1
Step 898000
Ar 1.163596e+00 0.000000e+00 0.000000e+00
1
Step 899000
Ar 1.007374e+00 0.000000e+00 0.000000e+00
1
Step 900000
Ar 1.134644e+00 0.000000e+00 0.000000e+00
1
Step 901000
Ar 9.923118e-01 0.000000e+00 0.000000e+00
1
Step 902000
Ar 8.392058e-01 0.000000e+00 0.000000e+00
1
Step 903000
Ar 9.479308e-01 0.000000e+00 0.000000e+00
1
Step 904000
Ar 9.501967e-01 0.000000e+00 0.000000e+00
1
Step 905000
Ar 8.598188e-01 0.000000e+00 0.000000e+00
1
Step 906000
Ar 9.293532e-01 0.000000e+00 0.000000e+00
1
Step 907000
Ar 1.150914e+00 0.000000e+00 0.000000e+00
1
Step 908000
Ar 1.001889e+00 0.000000e+00 0.000000e+00
1
Step 909000
Ar 7.999292e-01 0.000000e+00 0.000000e+00
1
Step 910000
Ar 1.102495e+00 0.000000e+00 0.000000e+00
1
Step 911000
Ar 1.173689e+00 0.000000e+00 0.000000e+00
1
Step 912000
Ar 9.981324e-01 0.000000e+00 0.000000e+00
1
Step 913000
Ar 8.311571e-01 0.000000e+00 0.000000e+00
1
Step 914000
Ar 1.037324e+00 0.000000e+00 0.000000e+00
1
Step 915000
Ar 9.509404e-01 0.000000e+00 0.000000e+00
1
Step 916000
Ar 1.086732e+00 0.000000e+00 0.000000e+00
1
Step 917000
Ar 1.079461e+00 0.000000e+00 0.000000e+00
1
Step 918000
Ar 8.608701e-01 0.000000e+00 0.000000e+00
1
Step 919000
Ar 1.143859e+00 0.000000e+00 0.000000e+00
1
Step 920000
Ar 8.718080e-01 0.000000e+00 0.000000e+00
1
Step 921000
Ar 7.682006e-01 0.000000e+00 0.000000e+00
1
Step 922000
Ar 7.160306e-01 0.000000e+00 0.000000e+00
1
Step 923000
Ar 7.878687e-01 0.000000e+00 0.000000e+00
1
Step 924000
Ar 8.472529e-01 0.000000e+00 0.000000e+00
1
Step 925000
Ar 8.517589e-01 0.000000e+00 0.000000e+00
1
Step 926000
Ar 8.538881e-01 0.000000e+00 0.000000e+00
1
Step 927000
Ar 7.170004e-01 0.000000e+00 0.000000e+00
1
Step 928000
Ar 7.640096e-01 0.000000e+00 0.000000e+00
1
Step 929000
Ar 8.297387e-01 0.000000e+00 0.000000e+00
1
Step 930000
Ar 8.098625e-01 0.000000e+00 0.000000e+00
1
Step 931000
Ar 6.715271e-01 0.000000e+00 0.000000e+00
1
Step 932000
Ar 8.109582e-01 0.000000e+00 0.000000e+00
1
Step 933000
Ar 8.539978e-01 0.000000e+00 0.000000e+00
1
Step 934000
Ar 8.135414e-01 0.000000e+00 0.000000e+00
1
Step 935000
Ar 8.551755e-01 0.000000e+00 0.000000e+00
1
Step 936000
Ar 8.444024e-01 0.000000e+00 0.000000e+00
1
Step 937000
Ar 8.361335e-01 0.000000e+00 0.000000e+00
1
Step 938000
Ar 8.004536e-01 0.000000e+00 0.000000e+00
1
Step 939000
Ar 8.290172e-01 0.000000e+00 0.000000e+00
1
Step 940000
Ar 8.136826e-01 0.000000e+00 0.000000e+00
1
Step 941000
Ar 7.327022e-01 0.000000e+00 0.000000e+00
1
Step 942000
Ar 7.555496e-01 0.000000e+00 0.000000e+00
1
Step 943000
Ar 8.554365e-01 0.000000e+00 0.000000e+00
1
Step 944000
Ar 6.849060e-01 0.000000e+00 0.000000e+00
1
Step 945000
Ar 7.039713e-01 0.000000e+00 0.000000e+00
1
Step 946000
Ar 7.321482e-01 0.000000e+00 0.000000e+00
1
Step 947000
Ar 7.106689e-01 0.000000e+00 0.000000e+00
1
Step 948000
Ar 8.124039e-01 0.000000e+00 0.000000e+00
1
Step 949000
Ar 8.584006e-01 0.000000e+00 0.000000e+00
1
Step 950000
Ar 7.757928e-01 0.000000e+00 0.000000e+00
1
Step 951000
Ar 5.775479e-01 0.000000e+00 0.000000e+00
1
Step 952000
Ar 8.281952e-01 0.000000e+00 0.000000e+00
1
Step 953000
Ar 7.018092e-01 0.000000e+00 0.000000e+00
1
Step 954000
Ar 7.301136e-01 0.000000e+00 0.000000e+00
1
Step 955000
Ar 7.232164e-01 0.000000e+00 0.000000e+00
1
Step 956000
Ar 8.513666e-01 0.000000e+00 0.000000e+00
1
Step 957000
Ar 8.356033e-01 0.000000e+00 0.000000e+00
1
Step 958000
Ar 8.362900e-01 0.000000e+00 0.000000e+00
1
Step 959000
Ar 7.969985e-01 0.000000e+00 0.000000e+00
1
Step 960000
Ar 8.161783e-01 0.000000e+00 0.000000e+00
1
Step 961000
Ar 8.212283e-01 0.000000e+00 0.000000e+00
1
Step 962000
Ar 7.977535e-01 0.000000e+00 0.000000e+00
1
Step 963000
Ar 8.270549e-01 0.000000e+00 0.000000e+00
1
Step 964000
Ar 8.222858e-01 0.000000e+00 0.000000e+00
1
Step 965000
Ar 8.336233e-01 0.000000e+00 0.000000e+00
1
Step 966000
Ar 8.278281e-01 0.000000e+00 0.000000e+00
1
Step 967000
Ar 8.475422e-01 0.000000e+00 0.000000e+00
1
Step 968000
Ar 7.291643e-01 0.000000e+00 0.000000e+00
1
Step 969000
Ar 8.021237e-01 0.000000e+00 0.000000e+00
1
Step 970000
Ar 6.642458e-01 0.000000e+00 0.000000e+00
1
Step 971000
Ar 7.834490e-01 0.000000e+00 0.000000e+00
1
Step 972000
Ar 8.201752e-01 0.000000e+00 0.000000e+00
1
Step 973000
Ar 7.961828e-01 0.000000e+00 0.000000e+00
1
Step 974000
Ar 8.475258e-01 0.000000e+00 0.000000e+00
1
Step 975000
Ar 8.275592e-01 0.000000e+00 0.000000e+00
1
Step 976000
Ar 7.938109e-01 0.000000e+00 0.000000e+00
1
Step 977000
Ar 8.457165e-01 0.000000e+00 0.000000e+00
1
Step 978000
Ar 8.406392e-01 0.000000e+00 0.000000e+00
1
Step 979000
Ar 8.506453e-01 0.000000e+00 0.000000e+00
1
Step 980000
Ar 7.564244e-01 0.000000e+00 0.000000e+00
1
Step 981000
Ar 6.973790e-01 0.000000e+00 0.000000e+00
1
Step 982000
Ar 7.290106e-01 0.000000e+00 0.000000e+00
1
Step 983000
Ar 8.007339e-01 0.000000e+00 0.000000e+00
1
Step 984000
Ar 6.564702e-01 0.000000e+00 0.000000e+00
1
Step 985000
Ar 8.163848e-01 0.000000e+00 0.000000e+00
1
Step 986000
Ar 8.002312e-01 0.000000e+00 0.000000e+00
1
Step 987000
Ar 6.696456e-01 0.000000e+00 0.000000e+00
1
Step 988000
Ar 8.099612e-01 0.000000e+00 0.000000e+00
1
Step 989000
Ar 8.463778e-01 0.000000e+00 0.000000e+00
1
Step 990000
Ar 8.314662e-01 0.000000e+00 0.000000e+00
1
Step 991000
Ar 7.170505e-01 0.000000e+00 0.000000e+00
1
Step 992000
Ar 7.119902e-01 0.000000e+00 0.000000e+00
1
Step 993000
Ar 7.763259e-01 0.000000e+00 0.000000e+00
1
Step 994000
Ar 7.932092e-01 0.000000e+00 0.000000e+00
1
Step 995000
Ar 7.065664e-01 0.000000e+00 0.000000e+00
1
Step 996000
Ar 8.512874e-01 0.000000e+00 0.000000e+00
1
Step 997000
Ar 6.282035e-01 0.000000e+00 0.000000e+00
1
Step 998000
Ar 6.442749e-01 0.000000e+00 0.000000e+00
1
Step 999000
Ar 7.676302e-01 0.000000e+00 0.000000e+00
