1
Step 120000
Ar 9.034104e-01 0.000000e+00 0.000000e+00
1
Step 121000
Ar 1.041300e+00 0.000000e+00 0.000000e+00
1
Step 122000
Ar 8.830352e-01 0.000000e+00 0.000000e+00
1
Step 123000
Ar 8.020621e-01 0.000000e+00 0.000000e+00
1
Step 124000
Ar 9.136221e-01 0.000000e+00 0.000000e+00
1
Step 125000
Ar 1.076723e+00 0.000000e+00 0.000000e+00
1
Step 126000
Ar 9.402957e-01 0.000000e+00 0.000000e+00
1
Step 127000
Ar 9.440526e-01 0.000000e+00 0.000000e+00
1
Step 128000
Ar 9.439680e-01 0.000000e+00 0.000000e+00
1
Step 129000
Ar 1.164399e+00 0.000000e+00 0.000000e+00
1
Step 130000
Ar 8.318060e-01 0.000000e+00 0.000000e+00
1
Step 131000
Ar 8.513780e-01 0.000000e+00 0.000000e+00
1
Step 132000
Ar 8.747621e-01 0.000000e+00 0.000000e+00
1
Step 133000
Ar 1.020330e+00 0.000000e+00 0.000000e+00
1
Step 134000
Ar 9.633300e-01 0.000000e+00 0.000000e+00
1
Step 135000
Ar 1.044398e+00 0.000000e+00 0.000000e+00
1
Step 136000
Ar 1.000465e+00 0.000000e+00 0.000000e+00
1
Step 137000
Ar 8.897734e-01 0.000000e+00 0.000000e+00
1
Step 138000
Ar 7.557462e-01 0.000000e+00 0.000000e+00
1
Step 139000
Ar 8.707700e-01 0.000000e+00 0.000000e+00
1
Step 140000
Ar 6.246978e-01 0.000000e+00 0.000000e+00
1
Step 141000
Ar 1.150022e+00 0.000000e+00 0.000000e+00
1
Step 142000
Ar 1.028344e+00 0.000000e+00 0.000000e+00
1
Step 143000
Ar 9.745574e-01 0.000000e+00 0.000000e+00
1
Step 144000
Ar 1.045061e+00 0.000000e+00 0.000000e+00
1
Step 145000
Ar 1.013912e+00 0.000000e+00 0.000000e+00
1
Step 146000
Ar 9.453254e-01 0.000000e+00 0.000000e+00
1
Step 147000
Ar 8.176687e-01 0.000000e+00 0.000000e+00
1
Step 148000
Ar 9.075848e-01 0.000000e+00 0.000000e+00
1
Step 149000
Ar 1.009501e+00 0.000000e+00 0.000000e+00
1
Step 150000
Ar 8.678127e-01 0.000000e+00 0.000000e+00
1
Step 151000
Ar 9.049264e-01 0.000000e+00 0.000000e+00
1
Step 152000
Ar 1.076664e+00 0.000000e+00 0.000000e+00
1
Step 153000
Ar 9.637254e-01 0.000000e+00 0.000000e+00
1
Step 154000
Ar 1.048912e+00 0.000000e+00 0.000000e+00
1
Step 155000
Ar 9.556378e-01 0.000000e+00 0.000000e+00
1
Step 156000
Ar 1.160793e+00 0.000000e+00 0.000000e+00
1
Step 157000
Ar 9.923002e-01 0.000000e+00 0.000000e+00
1
Step 158000
Ar 1.196543e+00 0.000000e+00 0.000000e+00
1
Step 159000
Ar 9.225209e-01 0.000000e+00 0.000000e+00
1
Step 160000
Ar 1.081125e+00 0.000000e+00 0.000000e+00
1
Step 161000
Ar 9.663550e-01 0.000000e+00 0.000000e+00
1
Step 162000
Ar 1.024096e+00 0.000000e+00 0.000000e+00
1
Step 163000
Ar 1.109764e+00 0.000000e+00 0.000000e+00
1
Step 164000
Ar 1.061582e+00 0.000000e+00 0.000000e+00
1
Step 165000
Ar 8.829307e-01 0.000000e+00 0.000000e+00
1
Step 166000
Ar 9.445405e-01 0.000000e+00 0.000000e+00
1
Step 167000
Ar 9.584561e-01 0.000000e+00 0.000000e+00
1
Step 168000
Ar 8.702101e-01 0.000000e+00 0.000000e+00
1
Step 169000
Ar 9.861166e-01 0.000000e+00 0.000000e+00
1
Step 170000
Ar 7.977733e-01 0.000000e+00 0.000000e+00
1
Step 171000
Ar 9.342426e-01 0.000000e+00 0.000000e+00
1
Step 172000
Ar 9.885707e-01 0.000000e+00 0.000000e+00
1
Step 173000
Ar 8.905693e-01 0.000000e+00 0.000000e+00
1
Step 174000
Ar 1.009036e+00 0.000000e+00 0.000000e+00
1
Step 175000
Ar 6.923108e-01 0.000000e+00 0.000000e+00
1
Step 176000
Ar 1.031037e+00 0.000000e+00 0.000000e+00
1
Step 177000
Ar 9.910451e-01 0.000000e+00 0.000000e+00
1
Step 178000
Ar 1.149892e+00 0.000000e+00 0.000000e+00
1
Step 179000
Ar 9.259619e-01 0.000000e+00 0.000000e+00
1
Step 180000
Ar 1.171543e+00 0.000000e+00 0.000000e+00
1
Step 181000
Ar 1.124350e+00 0.000000e+00 0.000000e+00
1
Step 182000
Ar 9.787374e-01 0.000000e+00 0.000000e+00
1
Step 183000
Ar 9.570659e-01 0.000000e+00 0.000000e+00
1
Step 184000
Ar 9.839389e-01 0.000000e+00 0.000000e+00
1
Step 185000
Ar 9.011462e-01 0.000000e+00 0.000000e+00
1
Step 186000
Ar 9.581469e-01 0.000000e+00 0.000000e+00
1
Step 187000
Ar 9.079727e-01 0.000000e+00 0.000000e+00
1
Step 188000
Ar 7.258336e-01 0.000000e+00 0.000000e+00
1
Step 189000
Ar 1.152925e+00 0.000000e+00 0.000000e+00
1
Step 190000
Ar 1.033769e+00 0.000000e+00 0.000000e+00
1
Step 191000
Ar 1.086758e+00 0.000000e+00 0.000000e+00
1
Step 192000
Ar 1.063063e+00 0.000000e+00 0.000000e+00
1
Step 193000
Ar 1.103387e+00 0.000000e+00 0.000000e+00
1
Step 194000
Ar 8.299952e-01 0.000000e+00 0.000000e+00
1
Step 195000
Ar 9.035864e-01 0.000000e+00 0.000000e+00
1
Step 196000
Ar 9.883096e-01 0.000000e+00 0.000000e+00
1
Step 197000
Ar 1.048865e+00 0.000000e+00 0.000000e+00
1
Step 198000
Ar 9.771603e-01 0.000000e+00 0.000000e+00
1
Step 199000
Ar 1.005253e+00 0.000000e+00 0.000000e+00
1
Step 200000
Ar 1.011917e+00 0.000000e+00 0.000000e+00
1
Step 201000
Ar 8.317236e-01 0.000000e+00 0.000000e+00
1
Step 202000
Ar 9.099716e-01 0.000000e+00 0.000000e+00
1
Step 203000
Ar 9.913099e-01 0.000000e+00 0.000000e+00
1
Step 204000
Ar 1.014543e+00 0.000000e+00 0.000000e+00
1
Step 205000
Ar 1.101097e+00 0.000000e+00 0.000000e+00
1
Step 206000
Ar 9.433248e-01 0.000000e+00 0.000000e+00
1
Step 207000
Ar 8.880606e-01 0.000000e+00 0.000000e+00
1
Step 208000
Ar 1.014225e+00 0.000000e+00 0.000000e+00
1
Step 209000
Ar 8.901670e-01 0.000000e+00 0.000000e+00
1
Step 210000
Ar 9.737338e-01 0.000000e+00 0.000000e+00
1
Step 211000
Ar 9.906205e-01 0.000000e+00 0.000000e+00
1
Step 212000
Ar 9.691572e-01 0.000000e+00 0.000000e+00
1
Step 213000
Ar 8.413354e-01 0.000000e+00 0.000000e+00
1
Step 214000
Ar 1.018821e+00 0.000000e+00 0.000000e+00
1
Step 215000
Ar 1.107362e+00 0.000000e+00 0.000000e+00
1
Step 216000
Ar 1.046244e+00 0.000000e+00 0.000000e+00
1
Step 217000
Ar 9.109987e-01 0.000000e+00 0.000000e+00
1
Step 218000
Ar 1.120431e+00 0.000000e+00 0.000000e+00
1
Step 219000
Ar 9.868974e-01 0.000000e+00 0.000000e+00
1
Step 220000
Ar 9.887494e-01 0.000000e+00 0.000000e+00
1
Step 221000
Ar 1.122392e+00 0.000000e+00 0.000000e+00
1
Step 222000
Ar 9.859701e-01 0.000000e+00 0.000000e+00
1
Step 223000
Ar 8.714449e-01 0.000000e+00 0.000000e+00
1
Step 224000
Ar 7.648804e-01 0.000000e+00 0.000000e+00
1
Step 225000
Ar 9.287094e-01 0.000000e+00 0.000000e+00
1
Step 226000
Ar 1.078955e+00 0.000000e+00 0.000000e+00
1
Step 227000
Ar 1.033557e+00 0.000000e+00 0.000000e+00
1
Step 228000
Ar 1.141823e+00 0.000000e+00 0.000000e+00
1
Step 229000
Ar 1.081360e+00 0.000000e+00 0.000000e+00
1
Step 230000
Ar 9.466935e-01 0.000000e+00 0.000000e+00
1
Step 231000
Ar 1.090878e+00 0.000000e+00 0.000000e+00
1
Step 232000
Ar 9.925410e-01 0.000000e+00 0.000000e+00
1
Step 233000
Ar 9.456818e-01 0.000000e+00 0.000000e+00
1
Step 234000
Ar 9.116939e-01 0.000000e+00 0.000000e+00
1
Step 235000
Ar 8.692723e-01 0.000000e+00 0.000000e+00
1
Step 236000
Ar 1.010706e+00 0.000000e+00 0.000000e+00
1
Step 237000
Ar 1.078725e+00 0.000000e+00 0.000000e+00
1
Step 238000
Ar 1.032769e+00 0.000000e+00 0.000000e+00
1
Step 239000
Ar 1.135240e+00 0.000000e+00 0.000000e+00
1
Step 240000
Ar 8.959195e-01 0.000000e+00 0.000000e+00
1
Step 241000
Ar 7.477916e-01 0.000000e+00 0.000000e+00
1
Step 242000
Ar 9.608987e-01 0.000000e+00 0.000000e+00
1
Step 243000
Ar 1.061246e+00 0.000000e+00 0.000000e+00
1
Step 244000
Ar 8.111602e-01 0.000000e+00 0.000000e+00
1
Step 245000
Ar 1.198119e+00 0.000000e+00 0.000000e+00
1
Step 246000
Ar 1.044305e+00 0.000000e+00 0.000000e+00
1
Step 247000
Ar 1.138498e+00 0.000000e+00 0.000000e+00
1
Step 248000
Ar 9.149883e-01 0.000000e+00 0.000000e+00
1
Step 249000
Ar 8.377424e-01 0.000000e+00 0.000000e+00
1
Step 250000
Ar 1.085911e+00 0.000000e+00 0.000000e+00
1
Step 251000
Ar 1.112534e+00 0.000000e+00 0.000000e+00
1
Step 252000
Ar 1.160218e+00 0.000000e+00 0.000000e+00
1
Step 253000
Ar 8.978818e-01 0.000000e+00 0.000000e+00
1
Step 254000
Ar 8.130479e-01 0.000000e+00 0.000000e+00
1
Step 255000
Ar 1.048296e+00 0.000000e+00 0.000000e+00
1
Step 256000
Ar 8.409695e-01 0.000000e+00 0.000000e+00
1
Step 257000
Ar 8.486741e-01 0.000000e+00 0.000000e+00
1
Step 258000
Ar 8.684529e-01 0.000000e+00 0.000000e+00
1
Step 259000
Ar 1.122145e+00 0.000000e+00 0.000000e+00
1
Step 260000
Ar 9.624927e-01 0.000000e+00 0.000000e+00
1
Step 261000
Ar 8.029878e-01 0.000000e+00 0.000000e+00
1
Step 262000
Ar 9.214842e-01 0.000000e+00 0.000000e+00
1
Step 263000
Ar 9.651896e-01 0.000000e+00 0.000000e+00
1
Step 264000
Ar 9.743247e-01 0.000000e+00 0.000000e+00
1
Step 265000
Ar 1.171419e+00 0.000000e+00 0.000000e+00
1
Step 266000
Ar 9.378662e-01 0.000000e+00 0.000000e+00
1
Step 267000
Ar 7.963224e-01 0.000000e+00 0.000000e+00
1
Step 268000
Ar 1.084497e+00 0.000000e+00 0.000000e+00
1
Step 269000
Ar 1.125638e+00 0.000000e+00 0.000000e+00
1
Step 270000
Ar 1.003157e+00 0.000000e+00 0.000000e+00
1
Step 271000
Ar 8.861308e-01 0.000000e+00 0.000000e+00
1
Step 272000
Ar 7.718668e-01 0.000000e+00 0.000000e+00
1
Step 273000
Ar 9.478869e-01 0.000000e+00 0.000000e+00
1
Step 274000
Ar 1.146593e+00 0.000000e+00 0.000000e+00
1
Step 275000
Ar 1.103914e+00 0.000000e+00 0.000000e+00
1
Step 276000
Ar 1.033081e+00 0.000000e+00 0.000000e+00
1
Step 277000
Ar 1.104033e+00 0.000000e+00 0.000000e+00
1
Step 278000
Ar 8.612964e-01 0.000000e+00 0.000000e+00
1
Step 279000
Ar 7.985180e-01 0.000000e+00 0.000000e+00
1
Step 280000
Ar 9.763437e-01 0.000000e+00 0.000000e+00
1
Step 281000
Ar 1.112057e+00 0.000000e+00 0.000000e+00
1
Step 282000
Ar 8.702619e-01 0.000000e+00 0.000000e+00
1
Step 283000
Ar 1.062258e+00 0.000000e+00 0.000000e+00
1
Step 284000
Ar 9.021563e-01 0.000000e+00 0.000000e+00
1
Step 285000
Ar 9.101397e-01 0.000000e+00 0.000000e+00
1
Step 286000
Ar 1.104749e+00 0.000000e+00 0.000000e+00
1
Step 287000
Ar 1.009525e+00 0.000000e+00 0.000000e+00
1
Step 288000
Ar 1.029042e+00 0.000000e+00 0.000000e+00
1
Step 289000
Ar 1.060435e+00 0.000000e+00 0.000000e+00
1
Step 290000
Ar 1.035506e+00 0.000000e+00 0.000000e+00
1
Step 291000
Ar 8.068461e-01 0.000000e+00 0.000000e+00
1
Step 292000
Ar 8.448154e-01 0.000000e+00 0.000000e+00
1
Step 293000
Ar 1.079925e+00 0.000000e+00 0.000000e+00
1
Step 294000
Ar 1.030486e+00 0.000000e+00 0.000000e+00
1
Step 295000
Ar 9.723561e-01 0.000000e+00 0.000000e+00
1
Step 296000
Ar 1.191930e+00 0.000000e+00 0.000000e+00
1
Step 297000
Ar 9.564088e-01 0.000000e+00 0.000000e+00
1
Step 298000
Ar 9.993222e-01 0.000000e+00 0.000000e+00
1
Step 299000
Ar 9.832228e-01 0.000000e+00 0.000000e+00
1
Step 300000
Ar 9.705945e-01 0.000000e+00 0.000000e+00
1
Step 301000
Ar 8.652506e-01 0.000000e+00 0.000000e+00
1
Step 302000
Ar 9.274434e-01 0.000000e+00 0.000000e+00
1
Step 303000
Ar 9.665050e-01 0.000000e+00 0.000000e+00
1
Step 304000
Ar 9.708380e-01 0.000000e+00 0.000000e+00
1
Step 305000
Ar 8.201609e-01 0.000000e+00 0.000000e+00
1
Step 306000
Ar 1.133135e+00 0.000000e+00 0.000000e+00
1
Step 307000
Ar 9.387525e-01 0.000000e+00 0.000000e+00
1
Step 308000
Ar 9.700932e-01 0.000000e+00 0.000000e+00
1
Step 309000
Ar 1.059106e+00 0.000000e+00 0.000000e+00
1
Step 310000
Ar 9.051863e-01 0.000000e+00 0.000000e+00
1
Step 311000
Ar 1.095688e+00 0.000000e+00 0.000000e+00
1
Step 312000
Ar 1.017696e+00 0.000000e+00 0.000000e+00
1
Step 313000
Ar 8.158915e-01 0.000000e+00 0.000000e+00
1
Step 314000
Ar 1.031000e+00 0.000000e+00 0.000000e+00
1
Step 315000
Ar 9.343189e-01 0.000000e+00 0.000000e+00
1
Step 316000
Ar 8.859020e-01 0.000000e+00 0.000000e+00
1
Step 317000
Ar 7.814068e-01 0.000000e+00 0.000000e+00
1
Step 318000
Ar 1.160939e+00 0.000000e+00 0.000000e+00
1
Step 319000
Ar 1.095445e+00 0.000000e+00 0.000000e+00
1
Step 320000
Ar 9.784779e-01 0.000000e+00 0.000000e+00
1
Step 321000
Ar 8.097733e-01 0.000000e+00 0.000000e+00
1
Step 322000
Ar 9.218606e-01 0.000000e+00 0.000000e+00
1
Step 323000
Ar 9.582772e-01 0.000000e+00 0.000000e+00
1
Step 324000
Ar 9.310854e-01 0.000000e+00 0.000000e+00
1
Step 325000
Ar 1.104435e+00 0.000000e+00 0.000000e+00
1
Step 326000
Ar 8.778222e-01 0.000000e+00 0.000000e+00
1
Step 327000
Ar 1.149352e+00 0.000000e+00 0.000000e+00
1
Step 328000
Ar 9.389185e-01 0.000000e+00 0.000000e+00
1
Step 329000
Ar 1.202723e+00 0.000000e+00 0.000000e+00
1
Step 330000
Ar 9.748815e-01 0.000000e+00 0.000000e+00
1
Step 331000
Ar 1.148257e+00 0.000000e+00 0.000000e+00
1
Step 332000
Ar 9.292066e-01 0.000000e+00 0.000000e+00
1
Step 333000
Ar 1.000650e+00 0.000000e+00 0.000000e+00
1
Step 334000
Ar 1.102377e+00 0.000000e+00 0.000000e+00
1
Step 335000
Ar 8.105623e-01 0.000000e+00 0.000000e+00
1
Step 336000
Ar 1.008604e+00 0.000000e+00 0.000000e+00
1
Step 337000
Ar 9.929390e-01 0.000000e+00 0.000000e+00
1
Step 338000
Ar 1.071244e+00 0.000000e+00 0.000000e+00
1
Step 339000
Ar 8.545149e-01 0.000000e+00 0.000000e+00
1
Step 340000
Ar 1.377200e+00 0.000000e+00 0.000000e+00
1
Step 341000
Ar 1.076501e+00 0.000000e+00 0.000000e+00
1
Step 342000
Ar 1.065134e+00 0.000000e+00 0.000000e+00
1
Step 343000
Ar 8.666398e-01 0.000000e+00 0.000000e+00
1
Step 344000
Ar 1.052174e+00 0.000000e+00 0.000000e+00
1
Step 345000
Ar 6.771063e-01 0.000000e+00 0.000000e+00
1
Step 346000
Ar 9.508240e-01 0.000000e+00 0.000000e+00
1
Step 347000
Ar 8.089197e-01 0.000000e+00 0.000000e+00
1
Step 348000
Ar 1.085910e+00 0.000000e+00 0.000000e+00
1
Step 349000
Ar 1.119735e+00 0.000000e+00 0.000000e+00
1
Step 350000
Ar 9.717840e-01 0.000000e+00 0.000000e+00
1
Step 351000
Ar 9.381845e-01 0.000000e+00 0.000000e+00
1
Step 352000
Ar 8.810344e-01 0.000000e+00 0.000000e+00
1
Step 353000
Ar 1.029378e+00 0.000000e+00 0.000000e+00
1
Step 354000
Ar 1.057788e+00 0.000000e+00 0.000000e+00
1
Step 355000
Ar 1.147689e+00 0.000000e+00 0.000000e+00
1
Step 356000
Ar 8.164466e-01 0.000000e+00 0.000000e+00
1
Step 357000
Ar 1.020291e+00 0.000000e+00 0.000000e+00
1
Step 358000
Ar 8.520131e-01 0.000000e+00 0.000000e+00
1
Step 359000
Ar 1.075211e+00 0.000000e+00 0.000000e+00
1
Step 360000
Ar 1.096078e+00 0.000000e+00 0.000000e+00
1
Step 361000
Ar 1.053398e+00 0.000000e+00 0.000000e+00
1
Step 362000
Ar 1.163993e+00 0.000000e+00 0.000000e+00
1
Step 363000
Ar 6.939038e-01 0.000000e+00 0.000000e+00
1
Step 364000
Ar 9.247284e-01 0.000000e+00 0.000000e+00
1
Step 365000
Ar 1.029768e+00 0.000000e+00 0.000000e+00
1
Step 366000
Ar 8.536978e-01 0.000000e+00 0.000000e+00
1
Step 367000
Ar 9.253099e-01 0.000000e+00 0.000000e+00
1
Step 368000
Ar 8.795743e-01 0.000000e+00 0.000000e+00
1
Step 369000
Ar 9.629042e-01 0.000000e+00 0.000000e+00
1
Step 370000
Ar 9.377560e-01 0.000000e+00 0.000000e+00
1
Step 371000
Ar 1.112586e+00 0.000000e+00 0.000000e+00
1
Step 372000
Ar 1.032287e+00 0.000000e+00 0.000000e+00
1
Step 373000
Ar 1.007823e+00 0.000000e+00 0.000000e+00
1
Step 374000
Ar 1.014798e+00 0.000000e+00 0.000000e+00
1
Step 375000
Ar 1.025839e+00 0.000000e+00 0.000000e+00
1
Step 376000
Ar 9.088488e-01 0.000000e+00 0.000000e+00
1
Step 377000
Ar 1.042107e+00 0.000000e+00 0.000000e+00
1
Step 378000
Ar 7.461081e-01 0.000000e+00 0.000000e+00
1
Step 379000
Ar 1.078903e+00 0.000000e+00 0.000000e+00
1
Step 380000
Ar 9.624586e-01 0.000000e+00 0.000000e+00
1
Step 381000
Ar 9.202911e-01 0.000000e+00 0.000000e+00
1
Step 382000
Ar 1.109195e+00 0.000000e+00 0.000000e+00
1
Step 383000
Ar 1.145423e+00 0.000000e+00 0.000000e+00
1
Step 384000
Ar 6.853199e-01 0.000000e+00 0.000000e+00
1
Step 385000
Ar 6.431599e-01 0.000000e+00 0.000000e+00
1
Step 386000
Ar 9.890103e-01 0.000000e+00 0.000000e+00
1
Step 387000
Ar 1.047277e+00 0.000000e+00 0.000000e+00
1
Step 388000
Ar 9.065529e-01 0.000000e+00 0.000000e+00
1
Step 389000
Ar 9.087962e-01 0.000000e+00 0.000000e+00
1
Step 390000
Ar 9.550107e-01 0.000000e+00 0.000000e+00
1
Step 391000
Ar 8.042885e-01 0.000000e+00 0.000000e+00
1
Step 392000
Ar 1.087692e+00 0.000000e+00 0.000000e+00
1
Step 393000
Ar 9.481340e-01 0.000000e+00 0.000000e+00
1
Step 394000
Ar 1.003196e+00 0.000000e+00 0.000000e+00
1
Step 395000
Ar 9.554781e-01 0.000000e+00 0.000000e+00
1
Step 396000
Ar 9.632338e-01 0.000000e+00 0.000000e+00
1
Step 397000
Ar 8.736605e-01 0.000000e+00 0.000000e+00
1
Step 398000
Ar 1.145988e+00 0.000000e+00 0.000000e+00
1
Step 399000
Ar 1.102855e+00 0.000000e+00 0.000000e+00
1
Step 400000
Ar 1.023910e+00 0.000000e+00 0.000000e+00
1
Step 401000
Ar 9.421148e-01 0.000000e+00 0.000000e+00
1
Step 402000
Ar 9.238382e-01 0.000000e+00 0.000000e+00
1
Step 403000
Ar 1.144160e+00 0.000000e+00 0.000000e+00
1
Step 404000
Ar 9.527824e-01 0.000000e+00 0.000000e+00
1
Step 405000
Ar 9.687666e-01 0.000000e+00 0.000000e+00
1
Step 406000
Ar 1.004485e+00 0.000000e+00 0.000000e+00
1
Step 407000
Ar 1.120608e+00 0.000000e+00 0.000000e+00
1
Step 408000
Ar 1.082971e+00 0.000000e+00 0.000000e+00
1
Step 409000
Ar 9.249354e-01 0.000000e+00 0.000000e+00
1
Step 410000
Ar 1.026397e+00 0.000000e+00 0.000000e+00
1
Step 411000
Ar 1.024766e+00 0.000000e+00 0.000000e+00
1
Step 412000
Ar 1.084094e+00 0.000000e+00 0.000000e+00
1
Step 413000
Ar 1.019840e+00 0.000000e+00 0.000000e+00
1
Step 414000
Ar 1.086480e+00 0.000000e+00 0.000000e+00
1
Step 415000
Ar 9.611671e-01 0.000000e+00 0.000000e+00
1
Step 416000
Ar 8.996040e-01 0.000000e+00 0.000000e+00
1
Step 417000
Ar 9.599338e-01 0.000000e+00 0.000000e+00
1
Step 418000
Ar 1.015570e+00 0.000000e+00 0.000000e+00
1
Step 419000
Ar 7.590279e-01 0.000000e+00 0.000000e+00
1
Step 420000
Ar 9.669023e-01 0.000000e+00 0.000000e+00
1
Step 421000
Ar 8.761708e-01 0.000000e+00 0.000000e+00
1
Step 422000
Ar 9.444223e-01 0.000000e+00 0.000000e+00
1
Step 423000
Ar 9.129160e-01 0.000000e+00 0.000000e+00
1
Step 424000
Ar 8.906466e-01 0.000000e+00 0.000000e+00
1
Step 425000
Ar 8.152074e-01 0.000000e+00 0.000000e+00
1
Step 426000
Ar 6.599635e-01 0.000000e+00 0.000000e+00
1
Step 427000
Ar 8.371212e-01 0.000000e+00 0.000000e+00
1
Step 428000
Ar 7.556977e-01 0.000000e+00 0.000000e+00
1
Step 429000
Ar 9.386240e-01 0.000000e+00 0.000000e+00
1
Step 430000
Ar 9.017431e-01 0.000000e+00 0.000000e+00
1
Step 431000
Ar 8.668220e-01 0.000000e+00 0.000000e+00
1
Step 432000
Ar 8.083325e-01 0.000000e+00 0.000000e+00
1
Step 433000
Ar 9.496732e-01 0.000000e+00 0.000000e+00
1
Step 434000
Ar 9.236673e-01 0.000000e+00 0.000000e+00
1
Step 435000
Ar 9.096617e-01 0.000000e+00 0.000000e+00
1
Step 436000
Ar 9.268916e-01 0.000000e+00 0.000000e+00
1
Step 437000
Ar 8.778289e-01 0.000000e+00 0.000000e+00
1
Step 438000
Ar 8.626777e-01 0.000000e+00 0.000000e+00
1
Step 439000
Ar 8.147911e-01 0.000000e+00 0.000000e+00
1
Step 440000
Ar 9.058542e-01 0.000000e+00 0.000000e+00
1
Step 441000
Ar 9.282934e-01 0.000000e+00 0.000000e+00
1
Step 442000
Ar 8.109483e-01 0.000000e+00 0.000000e+00
1
Step 443000
Ar 7.677432e-01 0.000000e+00 0.000000e+00
1
Step 444000
Ar 9.260604e-01 0.000000e+00 0.000000e+00
1
Step 445000
Ar 9.050826e-01 0.000000e+00 0.000000e+00
1
Step 446000
Ar 7.716261e-01 0.000000e+00 0.000000e+00
1
Step 447000
Ar 9.082088e-01 0.000000e+00 0.000000e+00
1
Step 448000
Ar 8.443701e-01 0.000000e+00 0.000000e+00
1
Step 449000
Ar 9.334981e-01 0.000000e+00 0.000000e+00
1
Step 450000
Ar 8.027457e-01 0.000000e+00 0.000000e+00
1
Step 451000
Ar 6.786757e-01 0.000000e+00 0.000000e+00
1
Step 452000
Ar 9.412145e-01 0.000000e+00 0.000000e+00
1
Step 453000
Ar 7.856559e-01 0.000000e+00 0.000000e+00
1
Step 454000
Ar 9.481257e-01 0.000000e+00 0.000000e+00
1
Step 455000
Ar 9.243560e-01 0.000000e+00 0.000000e+00
1
Step 456000
Ar 8.004778e-01 0.000000e+00 0.000000e+00
1
Step 457000
Ar 8.767232e-01 0.000000e+00 0.000000e+00
1
Step 458000
Ar 9.371023e-01 0.000000e+00 0.000000e+00
1
Step 459000
Ar 7.409354e-01 0.000000e+00 0.000000e+00
1
Step 460000
Ar 9.057623e-01 0.000000e+00 0.000000e+00
1
Step 461000
Ar 8.337881e-01 0.000000e+00 0.000000e+00
1
Step 462000
Ar 9.326556e-01 0.000000e+00 0.000000e+00
1
Step 463000
Ar 8.283817e-01 0.000000e+00 0.000000e+00
1
Step 464000
Ar 8.452065e-01 0.000000e+00 0.000000e+00
1
Step 465000
Ar 8.861505e-01 0.000000e+00 0.000000e+00
1
Step 466000
Ar 6.010078e-01 0.000000e+00 0.000000e+00
1
Step 467000
Ar 7.552225e-01 0.000000e+00 0.000000e+00
1
Step 468000
Ar 8.877860e-01 0.000000e+00 0.000000e+00
1
Step 469000
Ar 9.166982e-01 0.000000e+00 0.000000e+00
1
Step 470000
Ar 9.245444e-01 0.000000e+00 0.000000e+00
1
Step 471000
Ar 8.005767e-01 0.000000e+00 0.000000e+00
1
Step 472000
Ar 8.503935e-01 0.000000e+00 0.000000e+00
1
Step 473000
Ar 7.909187e-01 0.000000e+00 0.000000e+00
1
Step 474000
Ar 9.340331e-01 0.000000e+00 0.000000e+00
1
Step 475000
Ar 8.645167e-01 0.000000e+00 0.000000e+00
1
Step 476000
Ar 9.032035e-01 0.000000e+00 0.000000e+00
1
Step 477000
Ar 9.383546e-01 0.000000e+00 0.000000e+00
1
Step 478000
Ar 9.370286e-01 0.000000e+00 0.000000e+00
1
Step 479000
Ar 9.535465e-01 0.000000e+00 0.000000e+00
1
Step 480000
Ar 9.372059e-01 0.000000e+00 0.000000e+00
1
Step 481000
Ar 4.885338e-01 0.000000e+00 0.000000e+00
1
Step 482000
Ar 7.870280e-01 0.000000e+00 0.000000e+00
1
Step 483000
Ar 8.193382e-01 0.000000e+00 0.000000e+00
1
Step 484000
Ar 7.334060e-01 0.000000e+00 0.000000e+00
1
Step 485000
Ar 8.193149e-01 0.000000e+00 0.000000e+00
1
Step 486000
Ar 8.915509e-01 0.000000e+00 0.000000e+00
1
Step 487000
Ar 7.429002e-01 0.000000e+00 0.000000e+00
1
Step 488000
Ar 9.319717e-01 0.000000e+00 0.000000e+00
1
Step 489000
Ar 9.013766e-01 0.000000e+00 0.000000e+00
1
Step 490000
Ar 8.478948e-01 0.000000e+00 0.000000e+00
1
Step 491000
Ar 8.738025e-01 0.000000e+00 0.000000e+00
1
Step 492000
Ar 8.890037e-01 0.000000e+00 0.000000e+00
1
Step 493000
Ar 6.091653e-01 0.000000e+00 0.000000e+00
1
Step 494000
Ar 9.300767e-01 0.000000e+00 0.000000e+00
1
Step 495000
Ar 9.388470e-01 0.000000e+00 0.000000e+00
1
Step 496000
Ar 8.876526e-01 0.000000e+00 0.000000e+00
1
Step 497000
Ar 9.207214e-01 0.000000e+00 0.000000e+00
1
Step 498000
Ar 8.528638e-01 0.000000e+00 0.000000e+00
1
Step 499000
Ar 8.091907e-01 0.000000e+00 0.000000e+00
1
Step 500000
Ar 8.260996e-01 0.000000e+00 0.000000e+00
1
Step 501000
Ar 9.334022e-01 0.000000e+00 0.000000e+00
1
Step 502000
Ar 8.700949e-01 0.000000e+00 0.000000e+00
1
Step 503000
Ar 7.561626e-01 0.000000e+00 0.000000e+00
1
Step 504000
Ar 8.814036e-01 0.000000e+00 0.000000e+00
1
Step 505000
Ar 9.380348e-01 0.000000e+00 0.000000e+00
1
Step 506000
Ar 8.297613e-01 0.000000e+00 0.000000e+00
1
Step 507000
Ar 9.282300e-01 0.000000e+00 0.000000e+00
1
Step 508000
Ar 8.359061e-01 0.000000e+00 0.000000e+00
1
Step 509000
Ar 9.455076e-01 0.000000e+00 0.000000e+00
1
Step 510000
Ar 8.855066e-01 0.000000e+00 0.000000e+00
1
Step 511000
Ar 8.114822e-01 0.000000e+00 0.000000e+00
1
Step 512000
Ar 9.090239e-01 0.000000e+00 0.000000e+00
1
Step 513000
Ar 9.294302e-01 0.000000e+00 0.000000e+00
1
Step 514000
Ar 9.109148e-01 0.000000e+00 0.000000e+00
1
Step 515000
Ar 8.149060e-01 0.000000e+00 0.000000e+00
1
Step 516000
Ar 9.107254e-01 0.000000e+00 0.000000e+00
1
Step 517000
Ar 9.362173e-01 0.000000e+00 0.000000e+00
1
Step 518000
Ar 8.827638e-01 0.000000e+00 0.000000e+00
1
Step 519000
Ar 9.305145e-01 0.000000e+00 0.000000e+00
1
Step 520000
Ar 9.256526e-01 0.000000e+00 0.000000e+00
1
Step 521000
Ar 9.392038e-01 0.000000e+00 0.000000e+00
1
Step 522000
Ar 9.005068e-01 0.000000e+00 0.000000e+00
1
Step 523000
Ar 9.468831e-01 0.000000e+00 0.000000e+00
1
Step 524000
Ar 8.778115e-01 0.000000e+00 0.000000e+00
1
Step 525000
Ar 8.963138e-01 0.000000e+00 0.000000e+00
1
Step 526000
Ar 8.593688e-01 0.000000e+00 0.000000e+00
1
Step 527000
Ar 9.442591e-01 0.000000e+00 0.000000e+00
1
Step 528000
Ar 8.968350e-01 0.000000e+00 0.000000e+00
1
Step 529000
Ar 9.482784e-01 0.000000e+00 0.000000e+00
1
Step 530000
Ar 8.129783e-01 0.000000e+00 0.000000e+00
1
Step 531000
Ar 8.514559e-01 0.000000e+00 0.000000e+00
1
Step 532000
Ar 9.476132e-01 0.000000e+00 0.000000e+00
1
Step 533000
Ar 8.462315e-01 0.000000e+00 0.000000e+00
1
Step 534000
Ar 8.831241e-01 0.000000e+00 0.000000e+00
1
Step 535000
Ar 9.125376e-01 0.000000e+00 0.000000e+00
1
Step 536000
Ar 9.399509e-01 0.000000e+00 0.000000e+00
1
Step 537000
Ar 9.046634e-01 0.000000e+00 0.000000e+00
1
Step 538000
Ar 9.422686e-01 0.000000e+00 0.000000e+00
1
Step 539000
Ar 8.227601e-01 0.000000e+00 0.000000e+00
1
Step 540000
Ar 8.239464e-01 0.000000e+00 0.000000e+00
1
Step 541000
Ar 8.600025e-01 0.000000e+00 0.000000e+00
1
Step 542000
Ar 9.528387e-01 0.000000e+00 0.000000e+00
1
Step 543000
Ar 7.548116e-01 0.000000e+00 0.000000e+00
1
Step 544000
Ar 9.335201e-01 0.000000e+00 0.000000e+00
1
Step 545000
Ar 8.555029e-01 0.000000e+00 0.000000e+00
1
Step 546000
Ar 9.410061e-01 0.000000e+00 0.000000e+00
1
Step 547000
Ar 9.237671e-01 0.000000e+00 0.000000e+00
1
Step 548000
Ar 9.408235e-01 0.000000e+00 0.000000e+00
1
Step 549000
Ar 9.136469e-01 0.000000e+00 0.000000e+00
1
Step 550000
Ar 8.043828e-01 0.000000e+00 0.000000e+00
1
Step 551000
Ar 8.974660e-01 0.000000e+00 0.000000e+00
1
Step 552000
Ar 9.063375e-01 0.000000e+00 0.000000e+00
1
Step 553000
Ar 9.313520e-01 0.000000e+00 0.000000e+00
1
Step 554000
Ar 8.330099e-01 0.000000e+00 0.000000e+00
1
Step 555000
Ar 8.439361e-01 0.000000e+00 0.000000e+00
1
Step 556000
Ar 8.718197e-01 0.000000e+00 0.000000e+00
1
Step 557000
Ar 9.102084e-01 0.000000e+00 0.000000e+00
1
Step 558000
Ar 8.964023e-01 0.000000e+00 0.000000e+00
1
Step 559000
Ar 9.469664e-01 0.000000e+00 0.000000e+00
1
Step 560000
Ar 9.241353e-01 0.000000e+00 0.000000e+00
1
Step 561000
Ar 8.697376e-01 0.000000e+00 0.000000e+00
1
Step 562000
Ar 8.592726e-01 0.000000e+00 0.000000e+00
1
Step 563000
Ar 9.235269e-01 0.000000e+00 0.000000e+00
1
Step 564000
Ar 8.299404e-01 0.000000e+00 0.000000e+00
1
Step 565000
Ar 7.540418e-01 0.000000e+00 0.000000e+00
1
Step 566000
Ar 7.902072e-01 0.000000e+00 0.000000e+00
1
Step 567000
Ar 9.017968e-01 0.000000e+00 0.000000e+00
1
Step 568000
Ar 8.334477e-01 0.000000e+00 0.000000e+00
1
Step 569000
Ar 8.796459e-01 0.000000e+00 0.000000e+00
1
Step 570000
Ar 7.749480e-01 0.000000e+00 0.000000e+00
1
Step 571000
Ar 8.951756e-01 0.000000e+00 0.000000e+00
1
Step 572000
Ar 8.446521e-01 0.000000e+00 0.000000e+00
1
Step 573000
Ar 8.482823e-01 0.000000e+00 0.000000e+00
1
Step 574000
Ar 7.592233e-01 0.000000e+00 0.000000e+00
1
Step 575000
Ar 9.062944e-01 0.000000e+00 0.000000e+00
1
Step 576000
Ar 8.964975e-01 0.000000e+00 0.000000e+00
1
Step 577000
Ar 7.484755e-01 0.000000e+00 0.000000e+00
1
Step 578000
Ar 7.007005e-01 0.000000e+00 0.000000e+00
1
Step 579000
Ar 8.545308e-01 0.000000e+00 0.000000e+00
1
Step 580000
Ar 7.646081e-01 0.000000e+00 0.000000e+00
1
Step 581000
Ar 8.783000e-01 0.000000e+00 0.000000e+00
1
Step 582000
Ar 7.583060e-01 0.000000e+00 0.000000e+00
1
Step 583000
Ar 9.377257e-01 0.000000e+00 0.000000e+00
1
Step 584000
Ar 9.314628e-01 0.000000e+00 0.000000e+00
1
Step 585000
Ar 8.196604e-01 0.000000e+00 0.000000e+00
1
Step 586000
Ar 8.545689e-01 0.000000e+00 0.000000e+00
1
Step 587000
Ar 8.370486e-01 0.000000e+00 0.000000e+00
1
Step 588000
Ar 7.920366e-01 0.000000e+00 0.000000e+00
1
Step 589000
Ar 8.765144e-01 0.000000e+00 0.000000e+00
1
Step 590000
Ar 9.460447e-01 0.000000e+00 0.000000e+00
1
Step 591000
Ar 7.556626e-01 0.000000e+00 0.000000e+00
1
Step 592000
Ar 9.232813e-01 0.000000e+00 0.000000e+00
1
Step 593000
Ar 8.017303e-01 0.000000e+00 0.000000e+00
1
Step 594000
Ar 9.343283e-01 0.000000e+00 0.000000e+00
1
Step 595000
Ar 7.710428e-01 0.000000e+00 0.000000e+00
1
Step 596000
Ar 9.265529e-01 0.000000e+00 0.000000e+00
1
Step 597000
Ar 8.171831e-01 0.000000e+00 0.000000e+00
1
Step 598000
Ar 8.197952e-01 0.000000e+00 0.000000e+00
1
Step 599000
Ar 7.851467e-01 0.000000e+00 0.000000e+00
1
Step 600000
Ar 8.162003e-01 0.000000e+00 0.000000e+00
1
Step 601000
Ar 8.616877e-01 0.000000e+00 0.000000e+00
1
Step 602000
Ar 8.399061e-01 0.000000e+00 0.000000e+00
1
Step 603000
Ar 9.268708e-01 0.000000e+00 0.000000e+00
1
Step 604000
Ar 8.801795e-01 0.000000e+00 0.000000e+00
1
Step 605000
Ar 9.328864e-01 0.000000e+00 0.000000e+00
1
Step 606000
Ar 9.164445e-01 0.000000e+00 0.000000e+00
1
Step 607000
Ar 8.887301e-01 0.000000e+00 0.000000e+00
1
Step 608000
Ar 9.316304e-01 0.000000e+00 0.000000e+00
1
Step 609000
Ar 8.677820e-01 0.000000e+00 0.000000e+00
1
Step 610000
Ar 8.784334e-01 0.000000e+00 0.000000e+00
1
Step 611000
Ar 8.190183e-01 0.000000e+00 0.000000e+00
1
Step 612000
Ar 8.809807e-01 0.000000e+00 0.000000e+00
1
Step 613000
Ar 9.506965e-01 0.000000e+00 0.000000e+00
1
Step 614000
Ar 9.517914e-01 0.000000e+00 0.000000e+00
1
Step 615000
Ar 9.117766e-01 0.000000e+00 0.000000e+00
1
Step 616000
Ar 8.053096e-01 0.000000e+00 0.000000e+00
1
Step 617000
Ar 8.004075e-01 0.000000e+00 0.000000e+00
1
Step 618000
Ar 8.877766e-01 0.000000e+00 0.000000e+00
1
Step 619000
Ar 9.109317e-01 0.000000e+00 0.000000e+00
1
Step 620000
Ar 8.352921e-01 0.000000e+00 0.000000e+00
1
Step 621000
Ar 8.512625e-01 0.000000e+00 0.000000e+00
1
Step 622000
Ar 9.117762e-01 0.000000e+00 0.000000e+00
1
Step 623000
Ar 9.391798e-01 0.000000e+00 0.000000e+00
1
Step 624000
Ar 9.050108e-01 0.000000e+00 0.000000e+00
1
Step 625000
Ar 9.445680e-01 0.000000e+00 0.000000e+00
1
Step 626000
Ar 7.839596e-01 0.000000e+00 0.000000e+00
1
Step 627000
Ar 9.149607e-01 0.000000e+00 0.000000e+00
1
Step 628000
Ar 8.221606e-01 0.000000e+00 0.000000e+00
1
Step 629000
Ar 9.436631e-01 0.000000e+00 0.000000e+00
1
Step 630000
Ar 9.274990e-01 0.000000e+00 0.000000e+00
1
Step 631000
Ar 8.926839e-01 0.000000e+00 0.000000e+00
1
Step 632000
Ar 9.329217e-01 0.000000e+00 0.000000e+00
1
Step 633000
Ar 8.846121e-01 0.000000e+00 0.000000e+00
1
Step 634000
Ar 8.562226e-01 0.000000e+00 0.000000e+00
1
Step 635000
Ar 9.212863e-01 0.000000e+00 0.000000e+00
1
Step 636000
Ar 8.321284e-01 0.000000e+00 0.000000e+00
1
Step 637000
Ar 8.112975e-01 0.000000e+00 0.000000e+00
1
Step 638000
Ar 4.944806e-01 0.000000e+00 0.000000e+00
1
Step 639000
Ar 8.444684e-01 0.000000e+00 0.000000e+00
1
Step 640000
Ar 6.155671e-01 0.000000e+00 0.000000e+00
1
Step 641000
Ar 8.869034e-01 0.000000e+00 0.000000e+00
1
Step 642000
Ar 9.058653e-01 0.000000e+00 0.000000e+00
1
Step 643000
Ar 8.654536e-01 0.000000e+00 0.000000e+00
1
Step 644000
Ar 6.949981e-01 0.000000e+00 0.000000e+00
1
Step 645000
Ar 8.836667e-01 0.000000e+00 0.000000e+00
1
Step 646000
Ar 8.513772e-01 0.000000e+00 0.000000e+00
1
Step 647000
Ar 7.744889e-01 0.000000e+00 0.000000e+00
1
Step 648000
Ar 9.389241e-01 0.000000e+00 0.000000e+00
1
Step 649000
Ar 9.333221e-01 0.000000e+00 0.000000e+00
1
Step 650000
Ar 8.858546e-01 0.000000e+00 0.000000e+00
1
Step 651000
Ar 9.482335e-01 0.000000e+00 0.000000e+00
1
Step 652000
Ar 8.351705e-01 0.000000e+00 0.000000e+00
1
Step 653000
Ar 9.040312e-01 0.000000e+00 0.000000e+00
1
Step 654000
Ar 8.280983e-01 0.000000e+00 0.000000e+00
1
Step 655000
Ar 8.417404e-01 0.000000e+00 0.000000e+00
1
Step 656000
Ar 9.110153e-01 0.000000e+00 0.000000e+00
1
Step 657000
Ar 9.259705e-01 0.000000e+00 0.000000e+00
1
Step 658000
Ar 8.263804e-01 0.000000e+00 0.000000e+00
1
Step 659000
Ar 7.942517e-01 0.000000e+00 0.000000e+00
1
Step 660000
Ar 8.141900e-01 0.000000e+00 0.000000e+00
1
Step 661000
Ar 8.557387e-01 0.000000e+00 0.000000e+00
1
Step 662000
Ar 8.833869e-01 0.000000e+00 0.000000e+00
1
Step 663000
Ar 8.974065e-01 0.000000e+00 0.000000e+00
1
Step 664000
Ar 9.510133e-01 0.000000e+00 0.000000e+00
1
Step 665000
Ar 9.095653e-01 0.000000e+00 0.000000e+00
1
Step 666000
Ar 8.969484e-01 0.000000e+00 0.000000e+00
1
Step 667000
Ar 9.327494e-01 0.000000e+00 0.000000e+00
1
Step 668000
Ar 9.360412e-01 0.000000e+00 0.000000e+00
1
Step 669000
Ar 7.938492e-01 0.000000e+00 0.000000e+00
1
Step 670000
Ar 7.871415e-01 0.000000e+00 0.000000e+00
1
Step 671000
Ar 8.919797e-01 0.000000e+00 0.000000e+00
1
Step 672000
Ar 8.583228e-01 0.000000e+00 0.000000e+00
1
Step 673000
Ar 7.338917e-01 0.000000e+00 0.000000e+00
1
Step 674000
Ar 8.687394e-01 0.000000e+00 0.000000e+00
1
Step 675000
Ar 9.107270e-01 0.000000e+00 0.000000e+00
1
Step 676000
Ar 9.165921e-01 0.000000e+00 0.000000e+00
1
Step 677000
Ar 8.559324e-01 0.000000e+00 0.000000e+00
1
Step 678000
Ar 9.400150e-01 0.000000e+00 0.000000e+00
1
Step 679000
Ar 7.767543e-01 0.000000e+00 0.000000e+00
1
Step 680000
Ar 8.740189e-01 0.000000e+00 0.000000e+00
1
Step 681000
Ar 9.292207e-01 0.000000e+00 0.000000e+00
1
Step 682000
Ar 9.131809e-01 0.000000e+00 0.000000e+00
1
Step 683000
Ar 8.213311e-01 0.000000e+00 0.000000e+00
1
Step 684000
Ar 9.310023e-01 0.000000e+00 0.000000e+00
1
Step 685000
Ar 8.835601e-01 0.000000e+00 0.000000e+00
1
Step 686000
Ar 9.066116e-01 0.000000e+00 0.000000e+00
1
Step 687000
Ar 8.208584e-01 0.000000e+00 0.000000e+00
1
Step 688000
Ar 7.129450e-01 0.000000e+00 0.000000e+00
1
Step 689000
Ar 8.166875e-01 0.000000e+00 0.000000e+00
1
Step 690000
Ar 9.202154e-01 0.000000e+00 0.000000e+00
1
Step 691000
Ar 7.691242e-01 0.000000e+00 0.000000e+00
1
Step 692000
Ar 9.319633e-01 0.000000e+00 0.000000e+00
1
Step 693000
Ar 8.507794e-01 0.000000e+00 0.000000e+00
1
Step 694000
Ar 8.190161e-01 0.000000e+00 0.000000e+00
1
Step 695000
Ar 9.504435e-01 0.000000e+00 0.000000e+00
1
Step 696000
Ar 9.493160e-01 0.000000e+00 0.000000e+00
1
Step 697000
Ar 9.345646e-01 0.000000e+00 0.000000e+00
1
Step 698000
Ar 8.544014e-01 0.000000e+00 0.000000e+00
1
Step 699000
Ar 9.325712e-01 0.000000e+00 0.000000e+00
1
Step 700000
Ar 9.360763e-01 0.000000e+00 0.000000e+00
1
Step 701000
Ar 8.757250e-01 0.000000e+00 0.000000e+00
1
Step 702000
Ar 8.933364e-01 0.000000e+00 0.000000e+00
1
Step 703000
Ar 9.334570e-01 0.000000e+00 0.000000e+00
1
Step 704000
Ar 9.469780e-01 0.000000e+00 0.000000e+00
1
Step 705000
Ar 9.160813e-01 0.000000e+00 0.000000e+00
1
Step 706000
Ar 7.457022e-01 0.000000e+00 0.000000e+00
1
Step 707000
Ar 8.902264e-01 0.000000e+00 0.000000e+00
1
Step 708000
Ar 9.506078e-01 0.000000e+00 0.000000e+00
1
Step 709000
Ar 9.148798e-01 0.000000e+00 0.000000e+00
1
Step 710000
Ar 9.491659e-01 0.000000e+00 0.000000e+00
1
Step 711000
Ar 8.711348e-01 0.000000e+00 0.000000e+00
1
Step 712000
Ar 7.728488e-01 0.000000e+00 0.000000e+00
1
Step 713000
Ar 9.371082e-01 0.000000e+00 0.000000e+00
1
Step 714000
Ar 8.943978e-01 0.000000e+00 0.000000e+00
1
Step 715000
Ar 7.873168e-01 0.000000e+00 0.000000e+00
1
Step 716000
Ar 9.453963e-01 0.000000e+00 0.000000e+00
1
Step 717000
Ar 9.064159e-01 0.000000e+00 0.000000e+00
1
Step 718000
Ar 8.053626e-01 0.000000e+00 0.000000e+00
1
Step 719000
Ar 9.354549e-01 0.000000e+00 0.000000e+00
1
Step 720000
Ar 9.025402e-01 0.000000e+00 0.000000e+00
1
Step 721000
Ar 9.381082e-01 0.000000e+00 0.000000e+00
1
Step 722000
Ar 8.281749e-01 0.000000e+00 0.000000e+00
1
Step 723000
Ar 8.723387e-01 0.000000e+00 0.000000e+00
1
Step 724000
Ar 8.912168e-01 0.000000e+00 0.000000e+00
1
Step 725000
Ar 9.367484e-01 0.000000e+00 0.000000e+00
1
Step 726000
Ar 8.662898e-01 0.000000e+00 0.000000e+00
1
Step 727000
Ar 8.722272e-01 0.000000e+00 0.000000e+00
1
Step 728000
Ar 8.301473e-01 0.000000e+00 0.000000e+00
1
Step 729000
Ar 8.526261e-01 0.000000e+00 0.000000e+00
1
Step 730000
Ar 9.544119e-01 0.000000e+00 0.000000e+00
1
Step 731000
Ar 6.185516e-01 0.000000e+00 0.000000e+00
1
Step 732000
Ar 8.707646e-01 0.000000e+00 0.000000e+00
1
Step 733000
Ar 9.485488e-01 0.000000e+00 0.000000e+00
1
Step 734000
Ar 8.692009e-01 0.000000e+00 0.000000e+00
1
Step 735000
Ar 9.040499e-01 0.000000e+00 0.000000e+00
1
Step 736000
Ar 8.671813e-01 0.000000e+00 0.000000e+00
1
Step 737000
Ar 9.271237e-01 0.000000e+00 0.000000e+00
1
Step 738000
Ar 7.059703e-01 0.000000e+00 0.000000e+00
1
Step 739000
Ar 8.901776e-01 0.000000e+00 0.000000e+00
1
Step 740000
Ar 7.741452e-01 0.000000e+00 0.000000e+00
1
Step 741000
Ar 8.352658e-01 0.000000e+00 0.000000e+00
1
Step 742000
Ar 9.324560e-01 0.000000e+00 0.000000e+00
1
Step 743000
Ar 9.363956e-01 0.000000e+00 0.000000e+00
1
Step 744000
Ar 9.013493e-01 0.000000e+00 0.000000e+00
1
Step 745000
Ar 9.142014e-01 0.000000e+00 0.000000e+00
1
Step 746000
Ar 8.997254e-01 0.000000e+00 0.000000e+00
1
Step 747000
Ar 9.523741e-01 0.000000e+00 0.000000e+00
1
Step 748000
Ar 9.144898e-01 0.000000e+00 0.000000e+00
1
Step 749000
Ar 8.621195e-01 0.000000e+00 0.000000e+00
1
Step 750000
Ar 7.397312e-01 0.000000e+00 0.000000e+00
1
Step 751000
Ar 8.841309e-01 0.000000e+00 0.000000e+00
1
Step 752000
Ar 7.505902e-01 0.000000e+00 0.000000e+00
1
Step 753000
Ar 9.317176e-01 0.000000e+00 0.000000e+00
1
Step 754000
Ar 8.983332e-01 0.000000e+00 0.000000e+00
1
Step 755000
Ar 8.435797e-01 0.000000e+00 0.000000e+00
1
Step 756000
Ar 9.280684e-01 0.000000e+00 0.000000e+00
1
Step 757000
Ar 9.258075e-01 0.000000e+00 0.000000e+00
1
Step 758000
Ar 6.877305e-01 0.000000e+00 0.000000e+00
1
Step 759000
Ar 7.805569e-01 0.000000e+00 0.000000e+00
1
Step 760000
Ar 8.546939e-01 0.000000e+00 0.000000e+00
1
Step 761000
Ar 8.785233e-01 0.000000e+00 0.000000e+00
1
Step 762000
Ar 8.938545e-01 0.000000e+00 0.000000e+00
1
Step 763000
Ar 8.962317e-01 0.000000e+00 0.000000e+00
1
Step 764000
Ar 8.301907e-01 0.000000e+00 0.000000e+00
1
Step 765000
Ar 9.280960e-01 0.000000e+00 0.000000e+00
1
Step 766000
Ar 9.343004e-01 0.000000e+00 0.000000e+00
1
Step 767000
Ar 6.957234e-01 0.000000e+00 0.000000e+00
1
Step 768000
Ar 9.227794e-01 0.000000e+00 0.000000e+00
1
Step 769000
Ar 7.614817e-01 0.000000e+00 0.000000e+00
1
Step 770000
Ar 9.230688e-01 0.000000e+00 0.000000e+00
1
Step 771000
Ar 9.289152e-01 0.000000e+00 0.000000e+00
1
Step 772000
Ar 9.038480e-01 0.000000e+00 0.000000e+00
1
Step 773000
Ar 7.507658e-01 0.000000e+00 0.000000e+00
1
Step 774000
Ar 8.205488e-01 0.000000e+00 0.000000e+00
1
Step 775000
Ar 9.046941e-01 0.000000e+00 0.000000e+00
1
Step 776000
Ar 8.882224e-01 0.000000e+00 0.000000e+00
1
Step 777000
Ar 9.174928e-01 0.000000e+00 0.000000e+00
1
Step 778000
Ar 6.195433e-01 0.000000e+00 0.000000e+00
1
Step 779000
Ar 9.528283e-01 0.000000e+00 0.000000e+00
1
Step 780000
Ar 9.266271e-01 0.000000e+00 0.000000e+00
1
Step 781000
Ar 8.811729e-01 0.000000e+00 0.000000e+00
1
Step 782000
Ar 9.475107e-01 0.000000e+00 0.000000e+00
1
Step 783000
Ar 9.417181e-01 0.000000e+00 0.000000e+00
1
Step 784000
Ar 9.241771e-01 0.000000e+00 0.000000e+00
1
Step 785000
Ar 7.013277e-01 0.000000e+00 0.000000e+00
1
Step 786000
Ar 8.836301e-01 0.000000e+00 0.000000e+00
1
Step 787000
Ar 9.347957e-01 0.000000e+00 0.000000e+00
1
Step 788000
Ar 7.942576e-01 0.000000e+00 0.000000e+00
1
Step 789000
Ar 9.051975e-01 0.000000e+00 0.000000e+00
1
Step 790000
Ar 8.766638e-01 0.000000e+00 0.000000e+00
1
Step 791000
Ar 7.592526e-01 0.000000e+00 0.000000e+00
1
Step 792000
Ar 7.741905e-01 0.000000e+00 0.000000e+00
1
Step 793000
Ar 7.274071e-01 0.000000e+00 0.000000e+00
1
Step 794000
Ar 9.182397e-01 0.000000e+00 0.000000e+00
1
Step 795000
Ar 7.930610e-01 0.000000e+00 0.000000e+00
1
Step 796000
Ar 8.571637e-01 0.000000e+00 0.000000e+00
1
Step 797000
Ar 9.315344e-01 0.000000e+00 0.000000e+00
1
Step 798000
Ar 7.194983e-01 0.000000e+00 0.000000e+00
1
Step 799000
Ar 8.685668e-01 0.000000e+00 0.000000e+00
1
Step 800000
Ar 8.709916e-01 0.000000e+00 0.000000e+00
1
Step 801000
Ar 8.336642e-01 0.000000e+00 0.000000e+00
1
Step 802000
Ar 8.928089e-01 0.000000e+00 0.000000e+00
1
Step 803000
Ar 9.049159e-01 0.000000e+00 0.000000e+00
1
Step 804000
Ar 9.134065e-01 0.000000e+00 0.000000e+00
1
Step 805000
Ar 8.729407e-01 0.000000e+00 0.000000e+00
1
Step 806000
Ar 9.382191e-01 0.000000e+00 0.000000e+00
1
Step 807000
Ar 9.203805e-01 0.000000e+00 0.000000e+00
1
Step 808000
Ar 7.924019e-01 0.000000e+00 0.000000e+00
1
Step 809000
Ar 9.291728e-01 0.000000e+00 0.000000e+00
1
Step 810000
Ar 9.025497e-01 0.000000e+00 0.000000e+00
1
Step 811000
Ar 8.963522e-01 0.000000e+00 0.000000e+00
1
Step 812000
Ar 8.890596e-01 0.000000e+00 0.000000e+00
1
Step 813000
Ar 8.731839e-01 0.000000e+00 0.000000e+00
1
Step 814000
Ar 9.124596e-01 0.000000e+00 0.000000e+00
1
Step 815000
Ar 8.465147e-01 0.000000e+00 0.000000e+00
1
Step 816000
Ar 8.918100e-01 0.000000e+00 0.000000e+00
1
Step 817000
Ar 9.125683e-01 0.000000e+00 0.000000e+00
1
Step 818000
Ar 7.151519e-01 0.000000e+00 0.000000e+00
1
Step 819000
Ar 9.285055e-01 0.000000e+00 0.000000e+00
1
Step 820000
Ar 9.172078e-01 0.000000e+00 0.000000e+00
1
Step 821000
Ar 9.334392e-01 0.000000e+00 0.000000e+00
1
Step 822000
Ar 9.243642e-01 0.000000e+00 0.000000e+00
1
Step 823000
Ar 7.580776e-01 0.000000e+00 0.000000e+00
1
Step 824000
Ar 8.857093e-01 0.000000e+00 0.000000e+00
1
Step 825000
Ar 8.772092e-01 0.000000e+00 0.000000e+00
1
Step 826000
Ar 9.429932e-01 0.000000e+00 0.000000e+00
1
Step 827000
Ar 7.872513e-01 0.000000e+00 0.000000e+00
1
Step 828000
Ar 8.631325e-01 0.000000e+00 0.000000e+00
1
Step 829000
Ar 9.380724e-01 0.000000e+00 0.000000e+00
1
Step 830000
Ar 7.622352e-01 0.000000e+00 0.000000e+00
1
Step 831000
Ar 9.150942e-01 0.000000e+00 0.000000e+00
1
Step 832000
Ar 7.140336e-01 0.000000e+00 0.000000e+00
1
Step 833000
Ar 9.186881e-01 0.000000e+00 0.000000e+00
1
Step 834000
Ar 8.526525e-01 0.000000e+00 0.000000e+00
1
Step 835000
Ar 8.830615e-01 0.000000e+00 0.000000e+00
1
Step 836000
Ar 8.303097e-01 0.000000e+00 0.000000e+00
1
Step 837000
Ar 8.817225e-01 0.000000e+00 0.000000e+00
1
Step 838000
Ar 7.506680e-01 0.000000e+00 0.000000e+00
1
Step 839000
Ar 9.519192e-01 0.000000e+00 0.000000e+00
1
Step 840000
Ar 9.099613e-01 0.000000e+00 0.000000e+00
1
Step 841000
Ar 8.851685e-01 0.000000e+00 0.000000e+00
1
Step 842000
Ar 8.602104e-01 0.000000e+00 0.000000e+00
1
Step 843000
Ar 8.812065e-01 0.000000e+00 0.000000e+00
1
Step 844000
Ar 9.521242e-01 0.000000e+00 0.000000e+00
1
Step 845000
Ar 9.006582e-01 0.000000e+00 0.000000e+00
1
Step 846000
Ar 8.418139e-01 0.000000e+00 0.000000e+00
1
Step 847000
Ar 9.493669e-01 0.000000e+00 0.000000e+00
1
Step 848000
Ar 7.048996e-01 0.000000e+00 0.000000e+00
1
Step 849000
Ar 8.863835e-01 0.000000e+00 0.000000e+00
1
Step 850000
Ar 9.265406e-01 0.000000e+00 0.000000e+00
1
Step 851000
Ar 9.273846e-01 0.000000e+00 0.000000e+00
1
Step 852000
Ar 8.016217e-01 0.000000e+00 0.000000e+00
1
Step 853000
Ar 9.212056e-01 0.000000e+00 0.000000e+00
1
Step 854000
Ar 9.238030e-01 0.000000e+00 0.000000e+00
1
Step 855000
Ar 7.529199e-01 0.000000e+00 0.000000e+00
1
Step 856000
Ar 9.311238e-01 0.000000e+00 0.000000e+00
1
Step 857000
Ar 8.652317e-01 0.000000e+00 0.000000e+00
1
Step 858000
Ar 9.466838e-01 0.000000e+00 0.000000e+00
1
Step 859000
Ar 9.247811e-01 0.000000e+00 0.000000e+00
1
Step 860000
Ar 8.633319e-01 0.000000e+00 0.000000e+00
1
Step 861000
Ar 9.494797e-01 0.000000e+00 0.000000e+00
1
Step 862000
Ar 8.113090e-01 0.000000e+00 0.000000e+00
1
Step 863000
Ar 7.767070e-01 0.000000e+00 0.000000e+00
1
Step 864000
Ar 8.673551e-01 0.000000e+00 0.000000e+00
1
Step 865000
Ar 8.027566e-01 0.000000e+00 0.000000e+00
1
Step 866000
Ar 9.452498e-01 0.000000e+00 0.000000e+00
1
Step 867000
Ar 9.245148e-01 0.000000e+00 0.000000e+00
1
Step 868000
Ar 9.162660e-01 0.000000e+00 0.000000e+00
1
Step 869000
Ar 9.212480e-01 0.000000e+00 0.000000e+00
1
Step 870000
Ar 7.872439e-01 0.000000e+00 0.000000e+00
1
Step 871000
Ar 9.335924e-01 0.000000e+00 0.000000e+00
1
Step 872000
Ar 8.858457e-01 0.000000e+00 0.000000e+00
1
Step 873000
Ar 9.321036e-01 0.000000e+00 0.000000e+00
1
Step 874000
Ar 8.401060e-01 0.000000e+00 0.000000e+00
1
Step 875000
Ar 8.391966e-01 0.000000e+00 0.000000e+00
1
Step 876000
Ar 8.024581e-01 0.000000e+00 0.000000e+00
1
Step 877000
Ar 7.806330e-01 0.000000e+00 0.000000e+00
1
Step 878000
Ar 8.863961e-01 0.000000e+00 0.000000e+00
1
Step 879000
Ar 9.044968e-01 0.000000e+00 0.000000e+00
1
Step 880000
Ar 8.897605e-01 0.000000e+00 0.000000e+00
1
Step 881000
Ar 9.366059e-01 0.000000e+00 0.000000e+00
1
Step 882000
Ar 9.027825e-01 0.000000e+00 0.000000e+00
1
Step 883000
Ar 9.048771e-01 0.000000e+00 0.000000e+00
1
Step 884000
Ar 9.213587e-01 0.000000e+00 0.000000e+00
1
Step 885000
Ar 9.344781e-01 0.000000e+00 0.000000e+00
1
Step 886000
Ar 9.468187e-01 0.000000e+00 0.000000e+00
1
Step 887000
Ar 8.654037e-01 0.000000e+00 0.000000e+00
1
Step 888000
Ar 9.234973e-01 0.000000e+00 0.000000e+00
1
Step 889000
Ar 7.474658e-01 0.000000e+00 0.000000e+00
1
Step 890000
Ar 9.349888e-01 0.000000e+00 0.000000e+00
1
Step 891000
Ar 9.040215e-01 0.000000e+00 0.000000e+00
1
Step 892000
Ar 8.671744e-01 0.000000e+00 0.000000e+00
1
Step 893000
Ar 8.051189e-01 0.000000e+00 0.000000e+00
1
Step 894000
Ar 7.873049e-01 0.000000e+00 0.000000e+00
1
Step 895000
Ar 8.778741e-01 0.000000e+00 0.000000e+00
1
Step 896000
Ar 6.246393e-01 0.000000e+00 0.000000e+00
1
Step 897000
Ar 8.931687e-01 0.000000e+00 0.000000e+00
1
Step 898000
Ar 9.104724e-01 0.000000e+00 0.000000e+00
1
Step 899000
Ar 8.138592e-01 0.000000e+00 0.000000e+00
1
Step 900000
Ar 8.513204e-01 0.000000e+00 0.000000e+00
1
Step 901000
Ar 8.414512e-01 0.000000e+00 0.000000e+00
1
Step 902000
Ar 8.286156e-01 0.000000e+00 0.000000e+00
1
Step 903000
Ar 9.450931e-01 0.000000e+00 0.000000e+00
1
Step 904000
Ar 7.957034e-01 0.000000e+00 0.000000e+00
1
Step 905000
Ar 9.260060e-01 0.000000e+00 0.000000e+00
1
Step 906000
Ar 8.113406e-01 0.000000e+00 0.000000e+00
1
Step 907000
Ar 8.263619e-01 0.000000e+00 0.000000e+00
1
Step 908000
Ar 9.425191e-01 0.000000e+00 0.000000e+00
1
Step 909000
Ar 8.413284e-01 0.000000e+00 0.000000e+00
1
Step 910000
Ar 8.834795e-01 0.000000e+00 0.000000e+00
1
Step 911000
Ar 7.767370e-01 0.000000e+00 0.000000e+00
1
Step 912000
Ar 8.256333e-01 0.000000e+00 0.000000e+00
1
Step 913000
Ar 9.174084e-01 0.000000e+00 0.000000e+00
1
Step 914000
Ar 8.697980e-01 0.000000e+00 0.000000e+00
1
Step 915000
Ar 4.409960e-01 0.000000e+00 0.000000e+00
1
Step 916000
Ar 9.315910e-01 0.000000e+00 0.000000e+00
1
Step 917000
Ar 9.449574e-01 0.000000e+00 0.000000e+00
1
Step 918000
Ar 9.250648e-01 0.000000e+00 0.000000e+00
1
Step 919000
Ar 8.788565e-01 0.000000e+00 0.000000e+00
1
Step 920000
Ar 8.621765e-01 0.000000e+00 0.000000e+00
1
Step 921000
Ar 9.167652e-01 0.000000e+00 0.000000e+00
1
Step 922000
Ar 9.340814e-01 0.000000e+00 0.000000e+00
1
Step 923000
Ar 7.292251e-01 0.000000e+00 0.000000e+00
1
Step 924000
Ar 9.178965e-01 0.000000e+00 0.000000e+00
1
Step 925000
Ar 8.221444e-01 0.000000e+00 0.000000e+00
1
Step 926000
Ar 8.846909e-01 0.000000e+00 0.000000e+00
1
Step 927000
Ar 8.959690e-01 0.000000e+00 0.000000e+00
1
Step 928000
Ar 8.153279e-01 0.000000e+00 0.000000e+00
1
Step 929000
Ar 8.965124e-01 0.000000e+00 0.000000e+00
1
Step 930000
Ar 8.913984e-01 0.000000e+00 0.000000e+00
1
Step 931000
Ar 8.485801e-01 0.000000e+00 0.000000e+00
1
Step 932000
Ar 8.494318e-01 0.000000e+00 0.000000e+00
1
Step 933000
Ar 7.343095e-01 0.000000e+00 0.000000e+00
1
Step 934000
Ar 9.015864e-01 0.000000e+00 0.000000e+00
1
Step 935000
Ar 9.395762e-01 0.000000e+00 0.000000e+00
1
Step 936000
Ar 8.052480e-01 0.000000e+00 0.000000e+00
1
Step 937000
Ar 8.851308e-01 0.000000e+00 0.000000e+00
1
Step 938000
Ar 8.182229e-01 0.000000e+00 0.000000e+00
1
Step 939000
Ar 9.130006e-01 0.000000e+00 0.000000e+00
1
Step 940000
Ar 8.869986e-01 0.000000e+00 0.000000e+00
1
Step 941000
Ar 8.555619e-01 0.000000e+00 0.000000e+00
1
Step 942000
Ar 9.212416e-01 0.000000e+00 0.000000e+00
1
Step 943000
Ar 9.408556e-01 0.000000e+00 0.000000e+00
1
Step 944000
Ar 7.994207e-01 0.000000e+00 0.000000e+00
1
Step 945000
Ar 8.854378e-01 0.000000e+00 0.000000e+00
1
Step 946000
Ar 9.165907e-01 0.000000e+00 0.000000e+00
1
Step 947000
Ar 8.745857e-01 0.000000e+00 0.000000e+00
1
Step 948000
Ar 9.131549e-01 0.000000e+00 0.000000e+00
1
Step 949000
Ar 8.483331e-01 0.000000e+00 0.000000e+00
1
Step 950000
Ar 8.957855e-01 0.000000e+00 0.000000e+00
1
Step 951000
Ar 8.729435e-01 0.000000e+00 0.000000e+00
1
Step 952000
Ar 9.424750e-01 0.000000e+00 0.000000e+00
1
Step 953000
Ar 9.099187e-01 0.000000e+00 0.000000e+00
1
Step 954000
Ar 8.539235e-01 0.000000e+00 0.000000e+00
1
Step 955000
Ar 9.164243e-01 0.000000e+00 0.000000e+00
1
Step 956000
Ar 8.822089e-01 0.000000e+00 0.000000e+00
1
Step 957000
Ar 8.789145e-01 0.000000e+00 0.000000e+00
1
Step 958000
Ar 9.100065e-01 0.000000e+00 0.000000e+00
1
Step 959000
Ar 7.513549e-01 0.000000e+00 0.000000e+00
1
Step 960000
Ar 8.639289e-01 0.000000e+00 0.000000e+00
1
Step 961000
Ar 8.565788e-01 0.000000e+00 0.000000e+00
1
Step 962000
Ar 8.869994e-01 0.000000e+00 0.000000e+00
1
Step 963000
Ar 8.345162e-01 0.000000e+00 0.000000e+00
1
Step 964000
Ar 7.673794e-01 0.000000e+00 0.000000e+00
1
Step 965000
Ar 9.224977e-01 0.000000e+00 0.000000e+00
1
Step 966000
Ar 9.223406e-01 0.000000e+00 0.000000e+00
1
Step 967000
Ar 7.138288e-01 0.000000e+00 0.000000e+00
1
Step 968000
Ar 8.531086e-01 0.000000e+00 0.000000e+00
1
Step 969000
Ar 9.459664e-01 0.000000e+00 0.000000e+00
1
Step 970000
Ar 9.377931e-01 0.000000e+00 0.000000e+00
1
Step 971000
Ar 9.088969e-01 0.000000e+00 0.000000e+00
1
Step 972000
Ar 7.659077e-01 0.000000e+00 0.000000e+00
1
Step 973000
Ar 8.735819e-01 0.000000e+00 0.000000e+00
1
Step 974000
Ar 9.364285e-01 0.000000e+00 0.000000e+00
1
Step 975000
Ar 8.257109e-01 0.000000e+00 0.000000e+00
1
Step 976000
Ar 7.415175e-01 0.000000e+00 0.000000e+00
1
Step 977000
Ar 8.621875e-01 0.000000e+00 0.000000e+00
1
Step 978000
Ar 7.847955e-01 0.000000e+00 0.000000e+00
1
Step 979000
Ar 9.015714e-01 0.000000e+00 0.000000e+00
1
Step 980000
Ar 8.748052e-01 0.000000e+00 0.000000e+00
1
Step 981000
Ar 8.857716e-01 0.000000e+00 0.000000e+00
1
Step 982000
Ar 9.487362e-01 0.000000e+00 0.000000e+00
1
Step 983000
Ar 8.845438e-01 0.000000e+00 0.000000e+00
1
Step 984000
Ar 9.515099e-01 0.000000e+00 0.000000e+00
1
Step 985000
Ar 7.879218e-01 0.000000e+00 0.000000e+00
1
Step 986000
Ar 9.472082e-01 0.000000e+00 0.000000e+00
1
Step 987000
Ar 9.391597e-01 0.000000e+00 0.000000e+00
1
Step 988000
Ar 9.156143e-01 0.000000e+00 0.000000e+00
1
Step 989000
Ar 8.674983e-01 0.000000e+00 0.000000e+00
1
Step 990000
Ar 9.292424e-01 0.000000e+00 0.000000e+00
1
Step 991000
Ar 9.148925e-01 0.000000e+00 0.000000e+00
1
Step 992000
Ar 8.986155e-01 0.000000e+00 0.000000e+00
1
Step 993000
Ar 9.397889e-01 0.000000e+00 0.000000e+00
1
Step 994000
Ar 9.341661e-01 0.000000e+00 0.000000e+00
1
Step 995000
Ar 7.540716e-01 0.000000e+00 0.000000e+00
1
Step 996000
Ar 8.407168e-01 0.000000e+00 0.000000e+00
1
Step 997000
Ar 8.725328e-01 0.000000e+00 0.000000e+00
1
Step 998000
Ar 8.324787e-01 0.000000e+00 0.000000e+00
1
Step 999000
Ar 9.313699e-01 0.000000e+00 0.000000e+00
