1
Step 120000
Ar 1.168642e+00 0.000000e+00 0.000000e+00
1
Step 121000
Ar 1.014017e+00 0.000000e+00 0.000000e+00
1
Step 122000
Ar 1.023950e+00 0.000000e+00 0.000000e+00
1
Step 123000
Ar 9.615667e-01 0.000000e+00 0.000000e+00
1
Step 124000
Ar 9.025190e-01 0.000000e+00 0.000000e+00
1
Step 125000
Ar 8.080539e-01 0.000000e+00 0.000000e+00
1
Step 126000
Ar 1.016322e+00 0.000000e+00 0.000000e+00
1
Step 127000
Ar 1.129825e+00 0.000000e+00 0.000000e+00
1
Step 128000
Ar 1.072749e+00 0.000000e+00 0.000000e+00
1
Step 129000
Ar 8.507509e-01 0.000000e+00 0.000000e+00
1
Step 130000
Ar 9.557892e-01 0.000000e+00 0.000000e+00
1
Step 131000
Ar 1.095463e+00 0.000000e+00 0.000000e+00
1
Step 132000
Ar 6.678162e-01 0.000000e+00 0.000000e+00
1
Step 133000
Ar 9.661793e-01 0.000000e+00 0.000000e+00
1
Step 134000
Ar 1.101046e+00 0.000000e+00 0.000000e+00
1
Step 135000
Ar 8.344282e-01 0.000000e+00 0.000000e+00
1
Step 136000
Ar 1.054317e+00 0.000000e+00 0.000000e+00
1
Step 137000
Ar 9.272064e-01 0.000000e+00 0.000000e+00
1
Step 138000
Ar 7.136923e-01 0.000000e+00 0.000000e+00
1
Step 139000
Ar 9.687989e-01 0.000000e+00 0.000000e+00
1
Step 140000
Ar 1.023650e+00 0.000000e+00 0.000000e+00
1
Step 141000
Ar 9.865281e-01 0.000000e+00 0.000000e+00
1
Step 142000
Ar 9.277178e-01 0.000000e+00 0.000000e+00
1
Step 143000
Ar 9.881177e-01 0.000000e+00 0.000000e+00
1
Step 144000
Ar 1.009683e+00 0.000000e+00 0.000000e+00
1
Step 145000
Ar 9.861063e-01 0.000000e+00 0.000000e+00
1
Step 146000
Ar 7.644078e-01 0.000000e+00 0.000000e+00
1
Step 147000
Ar 1.013911e+00 0.000000e+00 0.000000e+00
1
Step 148000
Ar 1.224410e+00 0.000000e+00 0.000000e+00
1
Step 149000
Ar 8.189800e-01 0.000000e+00 0.000000e+00
1
Step 150000
Ar 9.716727e-01 0.000000e+00 0.000000e+00
1
Step 151000
Ar 9.355938e-01 0.000000e+00 0.000000e+00
1
Step 152000
Ar 1.127753e+00 0.000000e+00 0.000000e+00
1
Step 153000
Ar 8.029083e-01 0.000000e+00 0.000000e+00
1
Step 154000
Ar 7.768959e-01 0.000000e+00 0.000000e+00
1
Step 155000
Ar 8.974998e-01 0.000000e+00 0.000000e+00
1
Step 156000
Ar 1.046389e+00 0.000000e+00 0.000000e+00
1
Step 157000
Ar 1.012306e+00 0.000000e+00 0.000000e+00
1
Step 158000
Ar 8.832668e-01 0.000000e+00 0.000000e+00
1
Step 159000
Ar 1.065920e+00 0.000000e+00 0.000000e+00
1
Step 160000
Ar 9.695655e-01 0.000000e+00 0.000000e+00
1
Step 161000
Ar 1.127008e+00 0.000000e+00 0.000000e+00
1
Step 162000
Ar 9.009673e-01 0.000000e+00 0.000000e+00
1
Step 163000
Ar 1.232998e+00 0.000000e+00 0.000000e+00
1
Step 164000
Ar 1.055212e+00 0.000000e+00 0.000000e+00
1
Step 165000
Ar 1.103611e+00 0.000000e+00 0.000000e+00
1
Step 166000
Ar 8.899188e-01 0.000000e+00 0.000000e+00
1
Step 167000
Ar 1.006734e+00 0.000000e+00 0.000000e+00
1
Step 168000
Ar 1.080824e+00 0.000000e+00 0.000000e+00
1
Step 169000
Ar 1.123343e+00 0.000000e+00 0.000000e+00
1
Step 170000
Ar 1.016963e+00 0.000000e+00 0.000000e+00
1
Step 171000
Ar 1.092459e+00 0.000000e+00 0.000000e+00
1
Step 172000
Ar 8.733376e-01 0.000000e+00 0.000000e+00
1
Step 173000
Ar 7.592352e-01 0.000000e+00 0.000000e+00
1
Step 174000
Ar 1.034778e+00 0.000000e+00 0.000000e+00
1
Step 175000
Ar 9.654238e-01 0.000000e+00 0.000000e+00
1
Step 176000
Ar 9.666085e-01 0.000000e+00 0.000000e+00
1
Step 177000
Ar 9.696850e-01 0.000000e+00 0.000000e+00
1
Step 178000
Ar 1.030492e+00 0.000000e+00 0.000000e+00
1
Step 179000
Ar 1.001970e+00 0.000000e+00 0.000000e+00
1
Step 180000
Ar 1.051074e+00 0.000000e+00 0.000000e+00
1
Step 181000
Ar 8.986747e-01 0.000000e+00 0.000000e+00
1
Step 182000
Ar 1.039932e+00 0.000000e+00 0.000000e+00
1
Step 183000
Ar 1.001836e+00 0.000000e+00 0.000000e+00
1
Step 184000
Ar 1.054511e+00 0.000000e+00 0.000000e+00
1
Step 185000
Ar 1.056962e+00 0.000000e+00 0.000000e+00
1
Step 186000
Ar 1.035809e+00 0.000000e+00 0.000000e+00
1
Step 187000
Ar 9.316669e-01 0.000000e+00 0.000000e+00
1
Step 188000
Ar 1.163835e+00 0.000000e+00 0.000000e+00
1
Step 189000
Ar 9.148415e-01 0.000000e+00 0.000000e+00
1
Step 190000
Ar 9.932518e-01 0.000000e+00 0.000000e+00
1
Step 191000
Ar 9.007150e-01 0.000000e+00 0.000000e+00
1
Step 192000
Ar 9.905289e-01 0.000000e+00 0.000000e+00
1
Step 193000
Ar 1.080060e+00 0.000000e+00 0.000000e+00
1
Step 194000
Ar 9.773571e-01 0.000000e+00 0.000000e+00
1
Step 195000
Ar 9.576129e-01 0.000000e+00 0.000000e+00
1
Step 196000
Ar 8.852323e-01 0.000000e+00 0.000000e+00
1
Step 197000
Ar 7.723772e-01 0.000000e+00 0.000000e+00
1
Step 198000
Ar 8.500469e-01 0.000000e+00 0.000000e+00
1
Step 199000
Ar 1.096691e+00 0.000000e+00 0.000000e+00
1
Step 200000
Ar 1.019158e+00 0.000000e+00 0.000000e+00
1
Step 201000
Ar 8.051028e-01 0.000000e+00 0.000000e+00
1
Step 202000
Ar 1.033595e+00 0.000000e+00 0.000000e+00
1
Step 203000
Ar 8.688755e-01 0.000000e+00 0.000000e+00
1
Step 204000
Ar 1.175187e+00 0.000000e+00 0.000000e+00
1
Step 205000
Ar 1.014688e+00 0.000000e+00 0.000000e+00
1
Step 206000
Ar 9.677294e-01 0.000000e+00 0.000000e+00
1
Step 207000
Ar 1.031095e+00 0.000000e+00 0.000000e+00
1
Step 208000
Ar 1.034216e+00 0.000000e+00 0.000000e+00
1
Step 209000
Ar 9.818098e-01 0.000000e+00 0.000000e+00
1
Step 210000
Ar 1.056897e+00 0.000000e+00 0.000000e+00
1
Step 211000
Ar 1.016376e+00 0.000000e+00 0.000000e+00
1
Step 212000
Ar 6.179317e-01 0.000000e+00 0.000000e+00
1
Step 213000
Ar 8.645267e-01 0.000000e+00 0.000000e+00
1
Step 214000
Ar 9.942027e-01 0.000000e+00 0.000000e+00
1
Step 215000
Ar 1.002208e+00 0.000000e+00 0.000000e+00
1
Step 216000
Ar 9.888477e-01 0.000000e+00 0.000000e+00
1
Step 217000
Ar 9.859913e-01 0.000000e+00 0.000000e+00
1
Step 218000
Ar 1.111138e+00 0.000000e+00 0.000000e+00
1
Step 219000
Ar 8.672001e-01 0.000000e+00 0.000000e+00
1
Step 220000
Ar 9.522963e-01 0.000000e+00 0.000000e+00
1
Step 221000
Ar 9.585357e-01 0.000000e+00 0.000000e+00
1
Step 222000
Ar 1.144161e+00 0.000000e+00 0.000000e+00
1
Step 223000
Ar 8.070581e-01 0.000000e+00 0.000000e+00
1
Step 224000
Ar 9.622897e-01 0.000000e+00 0.000000e+00
1
Step 225000
Ar 7.280905e-01 0.000000e+00 0.000000e+00
1
Step 226000
Ar 1.071728e+00 0.000000e+00 0.000000e+00
1
Step 227000
Ar 7.713374e-01 0.000000e+00 0.000000e+00
1
Step 228000
Ar 1.090295e+00 0.000000e+00 0.000000e+00
1
Step 229000
Ar 1.042799e+00 0.000000e+00 0.000000e+00
1
Step 230000
Ar 9.502590e-01 0.000000e+00 0.000000e+00
1
Step 231000
Ar 8.293566e-01 0.000000e+00 0.000000e+00
1
Step 232000
Ar 8.488738e-01 0.000000e+00 0.000000e+00
1
Step 233000
Ar 9.158914e-01 0.000000e+00 0.000000e+00
1
Step 234000
Ar 1.064788e+00 0.000000e+00 0.000000e+00
1
Step 235000
Ar 9.484542e-01 0.000000e+00 0.000000e+00
1
Step 236000
Ar 1.085197e+00 0.000000e+00 0.000000e+00
1
Step 237000
Ar 9.952949e-01 0.000000e+00 0.000000e+00
1
Step 238000
Ar 1.057001e+00 0.000000e+00 0.000000e+00
1
Step 239000
Ar 7.690788e-01 0.000000e+00 0.000000e+00
1
Step 240000
Ar 9.024283e-01 0.000000e+00 0.000000e+00
1
Step 241000
Ar 9.575850e-01 0.000000e+00 0.000000e+00
1
Step 242000
Ar 7.393920e-01 0.000000e+00 0.000000e+00
1
Step 243000
Ar 9.658732e-01 0.000000e+00 0.000000e+00
1
Step 244000
Ar 9.432934e-01 0.000000e+00 0.000000e+00
1
Step 245000
Ar 9.828571e-01 0.000000e+00 0.000000e+00
1
Step 246000
Ar 8.787732e-01 0.000000e+00 0.000000e+00
1
Step 247000
Ar 8.736537e-01 0.000000e+00 0.000000e+00
1
Step 248000
Ar 1.022887e+00 0.000000e+00 0.000000e+00
1
Step 249000
Ar 9.459851e-01 0.000000e+00 0.000000e+00
1
Step 250000
Ar 9.091047e-01 0.000000e+00 0.000000e+00
1
Step 251000
Ar 1.182106e+00 0.000000e+00 0.000000e+00
1
Step 252000
Ar 1.137627e+00 0.000000e+00 0.000000e+00
1
Step 253000
Ar 8.985641e-01 0.000000e+00 0.000000e+00
1
Step 254000
Ar 9.534061e-01 0.000000e+00 0.000000e+00
1
Step 255000
Ar 9.204054e-01 0.000000e+00 0.000000e+00
1
Step 256000
Ar 1.011214e+00 0.000000e+00 0.000000e+00
1
Step 257000
Ar 1.008384e+00 0.000000e+00 0.000000e+00
1
Step 258000
Ar 9.791523e-01 0.000000e+00 0.000000e+00
1
Step 259000
Ar 8.540609e-01 0.000000e+00 0.000000e+00
1
Step 260000
Ar 1.080200e+00 0.000000e+00 0.000000e+00
1
Step 261000
Ar 9.141452e-01 0.000000e+00 0.000000e+00
1
Step 262000
Ar 9.691241e-01 0.000000e+00 0.000000e+00
1
Step 263000
Ar 1.051597e+00 0.000000e+00 0.000000e+00
1
Step 264000
Ar 1.037164e+00 0.000000e+00 0.000000e+00
1
Step 265000
Ar 8.868283e-01 0.000000e+00 0.000000e+00
1
Step 266000
Ar 1.065744e+00 0.000000e+00 0.000000e+00
1
Step 267000
Ar 1.080507e+00 0.000000e+00 0.000000e+00
1
Step 268000
Ar 1.129040e+00 0.000000e+00 0.000000e+00
1
Step 269000
Ar 1.063194e+00 0.000000e+00 0.000000e+00
1
Step 270000
Ar 9.938715e-01 0.000000e+00 0.000000e+00
1
Step 271000
Ar 1.030131e+00 0.000000e+00 0.000000e+00
1
Step 272000
Ar 9.614536e-01 0.000000e+00 0.000000e+00
1
Step 273000
Ar 9.380529e-01 0.000000e+00 0.000000e+00
1
Step 274000
Ar 1.059189e+00 0.000000e+00 0.000000e+00
1
Step 275000
Ar 1.066933e+00 0.000000e+00 0.000000e+00
1
Step 276000
Ar 9.537244e-01 0.000000e+00 0.000000e+00
1
Step 277000
Ar 1.167883e+00 0.000000e+00 0.000000e+00
1
Step 278000
Ar 9.639804e-01 0.000000e+00 0.000000e+00
1
Step 279000
Ar 8.767727e-01 0.000000e+00 0.000000e+00
1
Step 280000
Ar 8.745778e-01 0.000000e+00 0.000000e+00
1
Step 281000
Ar 1.000030e+00 0.000000e+00 0.000000e+00
1
Step 282000
Ar 8.258439e-01 0.000000e+00 0.000000e+00
1
Step 283000
Ar 7.775633e-01 0.000000e+00 0.000000e+00
1
Step 284000
Ar 9.383402e-01 0.000000e+00 0.000000e+00
1
Step 285000
Ar 1.073532e+00 0.000000e+00 0.000000e+00
1
Step 286000
Ar 1.008001e+00 0.000000e+00 0.000000e+00
1
Step 287000
Ar 9.237418e-01 0.000000e+00 0.000000e+00
1
Step 288000
Ar 8.443161e-01 0.000000e+00 0.000000e+00
1
Step 289000
Ar 1.053072e+00 0.000000e+00 0.000000e+00
1
Step 290000
Ar 9.325334e-01 0.000000e+00 0.000000e+00
1
Step 291000
Ar 1.042437e+00 0.000000e+00 0.000000e+00
1
Step 292000
Ar 8.681231e-01 0.000000e+00 0.000000e+00
1
Step 293000
Ar 1.035279e+00 0.000000e+00 0.000000e+00
1
Step 294000
Ar 1.067302e+00 0.000000e+00 0.000000e+00
1
Step 295000
Ar 7.478102e-01 0.000000e+00 0.000000e+00
1
Step 296000
Ar 9.836026e-01 0.000000e+00 0.000000e+00
1
Step 297000
Ar 1.024892e+00 0.000000e+00 0.000000e+00
1
Step 298000
Ar 1.110284e+00 0.000000e+00 0.000000e+00
1
Step 299000
Ar 7.714974e-01 0.000000e+00 0.000000e+00
1
Step 300000
Ar 9.087581e-01 0.000000e+00 0.000000e+00
1
Step 301000
Ar 1.040687e+00 0.000000e+00 0.000000e+00
1
Step 302000
Ar 1.155124e+00 0.000000e+00 0.000000e+00
1
Step 303000
Ar 9.596889e-01 0.000000e+00 0.000000e+00
1
Step 304000
Ar 8.592090e-01 0.000000e+00 0.000000e+00
1
Step 305000
Ar 9.521237e-01 0.000000e+00 0.000000e+00
1
Step 306000
Ar 9.699278e-01 0.000000e+00 0.000000e+00
1
Step 307000
Ar 1.025168e+00 0.000000e+00 0.000000e+00
1
Step 308000
Ar 1.026159e+00 0.000000e+00 0.000000e+00
1
Step 309000
Ar 1.007539e+00 0.000000e+00 0.000000e+00
1
Step 310000
Ar 1.106712e+00 0.000000e+00 0.000000e+00
1
Step 311000
Ar 9.354622e-01 0.000000e+00 0.000000e+00
1
Step 312000
Ar 8.240442e-01 0.000000e+00 0.000000e+00
1
Step 313000
Ar 8.874950e-01 0.000000e+00 0.000000e+00
1
Step 314000
Ar 7.609566e-01 0.000000e+00 0.000000e+00
1
Step 315000
Ar 1.013993e+00 0.000000e+00 0.000000e+00
1
Step 316000
Ar 1.026977e+00 0.000000e+00 0.000000e+00
1
Step 317000
Ar 1.054380e+00 0.000000e+00 0.000000e+00
1
Step 318000
Ar 1.009047e+00 0.000000e+00 0.000000e+00
1
Step 319000
Ar 9.852985e-01 0.000000e+00 0.000000e+00
1
Step 320000
Ar 9.317017e-01 0.000000e+00 0.000000e+00
1
Step 321000
Ar 8.731832e-01 0.000000e+00 0.000000e+00
1
Step 322000
Ar 8.962545e-01 0.000000e+00 0.000000e+00
1
Step 323000
Ar 7.721769e-01 0.000000e+00 0.000000e+00
1
Step 324000
Ar 8.191773e-01 0.000000e+00 0.000000e+00
1
Step 325000
Ar 6.642104e-01 0.000000e+00 0.000000e+00
1
Step 326000
Ar 8.038541e-01 0.000000e+00 0.000000e+00
1
Step 327000
Ar 9.079275e-01 0.000000e+00 0.000000e+00
1
Step 328000
Ar 9.154599e-01 0.000000e+00 0.000000e+00
1
Step 329000
Ar 8.590127e-01 0.000000e+00 0.000000e+00
1
Step 330000
Ar 8.758790e-01 0.000000e+00 0.000000e+00
1
Step 331000
Ar 7.941296e-01 0.000000e+00 0.000000e+00
1
Step 332000
Ar 9.155787e-01 0.000000e+00 0.000000e+00
1
Step 333000
Ar 8.056575e-01 0.000000e+00 0.000000e+00
1
Step 334000
Ar 8.619389e-01 0.000000e+00 0.000000e+00
1
Step 335000
Ar 7.941733e-01 0.000000e+00 0.000000e+00
1
Step 336000
Ar 8.854889e-01 0.000000e+00 0.000000e+00
1
Step 337000
Ar 8.062657e-01 0.000000e+00 0.000000e+00
1
Step 338000
Ar 7.823114e-01 0.000000e+00 0.000000e+00
1
Step 339000
Ar 8.743109e-01 0.000000e+00 0.000000e+00
1
Step 340000
Ar 9.059286e-01 0.000000e+00 0.000000e+00
1
Step 341000
Ar 9.167988e-01 0.000000e+00 0.000000e+00
1
Step 342000
Ar 8.876108e-01 0.000000e+00 0.000000e+00
1
Step 343000
Ar 8.596976e-01 0.000000e+00 0.000000e+00
1
Step 344000
Ar 8.500167e-01 0.000000e+00 0.000000e+00
1
Step 345000
Ar 8.673322e-01 0.000000e+00 0.000000e+00
1
Step 346000
Ar 9.114192e-01 0.000000e+00 0.000000e+00
1
Step 347000
Ar 8.314966e-01 0.000000e+00 0.000000e+00
1
Step 348000
Ar 8.100321e-01 0.000000e+00 0.000000e+00
1
Step 349000
Ar 9.210231e-01 0.000000e+00 0.000000e+00
1
Step 350000
Ar 8.975780e-01 0.000000e+00 0.000000e+00
1
Step 351000
Ar 6.900357e-01 0.000000e+00 0.000000e+00
1
Step 352000
Ar 6.987708e-01 0.000000e+00 0.000000e+00
1
Step 353000
Ar 8.866840e-01 0.000000e+00 0.000000e+00
1
Step 354000
Ar 7.605437e-01 0.000000e+00 0.000000e+00
1
Step 355000
Ar 9.149280e-01 0.000000e+00 0.000000e+00
1
Step 356000
Ar 8.854699e-01 0.000000e+00 0.000000e+00
1
Step 357000
Ar 7.408480e-01 0.000000e+00 0.000000e+00
1
Step 358000
Ar 8.414510e-01 0.000000e+00 0.000000e+00
1
Step 359000
Ar 8.793793e-01 0.000000e+00 0.000000e+00
1
Step 360000
Ar 5.796435e-01 0.000000e+00 0.000000e+00
1
Step 361000
Ar 7.493910e-01 0.000000e+00 0.000000e+00
1
Step 362000
Ar 9.137677e-01 0.000000e+00 0.000000e+00
1
Step 363000
Ar 8.572190e-01 0.000000e+00 0.000000e+00
1
Step 364000
Ar 8.366700e-01 0.000000e+00 0.000000e+00
1
Step 365000
Ar 9.192221e-01 0.000000e+00 0.000000e+00
1
Step 366000
Ar 8.516502e-01 0.000000e+00 0.000000e+00
1
Step 367000
Ar 8.736153e-01 0.000000e+00 0.000000e+00
1
Step 368000
Ar 7.595703e-01 0.000000e+00 0.000000e+00
1
Step 369000
Ar 8.356223e-01 0.000000e+00 0.000000e+00
1
Step 370000
Ar 8.591406e-01 0.000000e+00 0.000000e+00
1
Step 371000
Ar 8.476732e-01 0.000000e+00 0.000000e+00
1
Step 372000
Ar 7.424344e-01 0.000000e+00 0.000000e+00
1
Step 373000
Ar 9.126393e-01 0.000000e+00 0.000000e+00
1
Step 374000
Ar 8.210284e-01 0.000000e+00 0.000000e+00
1
Step 375000
Ar 8.237739e-01 0.000000e+00 0.000000e+00
1
Step 376000
Ar 8.266527e-01 0.000000e+00 0.000000e+00
1
Step 377000
Ar 9.057196e-01 0.000000e+00 0.000000e+00
1
Step 378000
Ar 8.571507e-01 0.000000e+00 0.000000e+00
1
Step 379000
Ar 8.831351e-01 0.000000e+00 0.000000e+00
1
Step 380000
Ar 9.011634e-01 0.000000e+00 0.000000e+00
1
Step 381000
Ar 8.669624e-01 0.000000e+00 0.000000e+00
1
Step 382000
Ar 8.696207e-01 0.000000e+00 0.000000e+00
1
Step 383000
Ar 8.027334e-01 0.000000e+00 0.000000e+00
1
Step 384000
Ar 7.777877e-01 0.000000e+00 0.000000e+00
1
Step 385000
Ar 9.093562e-01 0.000000e+00 0.000000e+00
1
Step 386000
Ar 8.465498e-01 0.000000e+00 0.000000e+00
1
Step 387000
Ar 8.146666e-01 0.000000e+00 0.000000e+00
1
Step 388000
Ar 8.914387e-01 0.000000e+00 0.000000e+00
1
Step 389000
Ar 8.796195e-01 0.000000e+00 0.000000e+00
1
Step 390000
Ar 8.228527e-01 0.000000e+00 0.000000e+00
1
Step 391000
Ar 7.703717e-01 0.000000e+00 0.000000e+00
1
Step 392000
Ar 9.133051e-01 0.000000e+00 0.000000e+00
1
Step 393000
Ar 9.044071e-01 0.000000e+00 0.000000e+00
1
Step 394000
Ar 7.972829e-01 0.000000e+00 0.000000e+00
1
Step 395000
Ar 9.015139e-01 0.000000e+00 0.000000e+00
1
Step 396000
Ar 8.003782e-01 0.000000e+00 0.000000e+00
1
Step 397000
Ar 7.739539e-01 0.000000e+00 0.000000e+00
1
Step 398000
Ar 8.714031e-01 0.000000e+00 0.000000e+00
1
Step 399000
Ar 8.405990e-01 0.000000e+00 0.000000e+00
1
Step 400000
Ar 9.137668e-01 0.000000e+00 0.000000e+00
1
Step 401000
Ar 7.364382e-01 0.000000e+00 0.000000e+00
1
Step 402000
Ar 9.078393e-01 0.000000e+00 0.000000e+00
1
Step 403000
Ar 9.034728e-01 0.000000e+00 0.000000e+00
1
Step 404000
Ar 8.981843e-01 0.000000e+00 0.000000e+00
1
Step 405000
Ar 7.376047e-01 0.000000e+00 0.000000e+00
1
Step 406000
Ar 8.583067e-01 0.000000e+00 0.000000e+00
1
Step 407000
Ar 8.616781e-01 0.000000e+00 0.000000e+00
1
Step 408000
Ar 9.039781e-01 0.000000e+00 0.000000e+00
1
Step 409000
Ar 8.259444e-01 0.000000e+00 0.000000e+00
1
Step 410000
Ar 8.733558e-01 0.000000e+00 0.000000e+00
1
Step 411000
Ar 7.949964e-01 0.000000e+00 0.000000e+00
1
Step 412000
Ar 8.132239e-01 0.000000e+00 0.000000e+00
1
Step 413000
Ar 8.466405e-01 0.000000e+00 0.000000e+00
1
Step 414000
Ar 9.007408e-01 0.000000e+00 0.000000e+00
1
Step 415000
Ar 9.122844e-01 0.000000e+00 0.000000e+00
1
Step 416000
Ar 8.888304e-01 0.000000e+00 0.000000e+00
1
Step 417000
Ar 8.326800e-01 0.000000e+00 0.000000e+00
1
Step 418000
Ar 7.757758e-01 0.000000e+00 0.000000e+00
1
Step 419000
Ar 8.531894e-01 0.000000e+00 0.000000e+00
1
Step 420000
Ar 8.373159e-01 0.000000e+00 0.000000e+00
1
Step 421000
Ar 8.942072e-01 0.000000e+00 0.000000e+00
1
Step 422000
Ar 7.637116e-01 0.000000e+00 0.000000e+00
1
Step 423000
Ar 7.784441e-01 0.000000e+00 0.000000e+00
1
Step 424000
Ar 8.656060e-01 0.000000e+00 0.000000e+00
1
Step 425000
Ar 8.580049e-01 0.000000e+00 0.000000e+00
1
Step 426000
Ar 8.868438e-01 0.000000e+00 0.000000e+00
1
Step 427000
Ar 8.902041e-01 0.000000e+00 0.000000e+00
1
Step 428000
Ar 9.170330e-01 0.000000e+00 0.000000e+00
1
Step 429000
Ar 9.092444e-01 0.000000e+00 0.000000e+00
1
Step 430000
Ar 8.008501e-01 0.000000e+00 0.000000e+00
1
Step 431000
Ar 9.174131e-01 0.000000e+00 0.000000e+00
1
Step 432000
Ar 8.210478e-01 0.000000e+00 0.000000e+00
1
Step 433000
Ar 8.781439e-01 0.000000e+00 0.000000e+00
1
Step 434000
Ar 9.134604e-01 0.000000e+00 0.000000e+00
1
Step 435000
Ar 9.056012e-01 0.000000e+00 0.000000e+00
1
Step 436000
Ar 8.860297e-01 0.000000e+00 0.000000e+00
1
Step 437000
Ar 8.790586e-01 0.000000e+00 0.000000e+00
1
Step 438000
Ar 7.334137e-01 0.000000e+00 0.000000e+00
1
Step 439000
Ar 7.192216e-01 0.000000e+00 0.000000e+00
1
Step 440000
Ar 8.797340e-01 0.000000e+00 0.000000e+00
1
Step 441000
Ar 9.184503e-01 0.000000e+00 0.000000e+00
1
Step 442000
Ar 8.175309e-01 0.000000e+00 0.000000e+00
1
Step 443000
Ar 5.731937e-01 0.000000e+00 0.000000e+00
1
Step 444000
Ar 8.286159e-01 0.000000e+00 0.000000e+00
1
Step 445000
Ar 7.454745e-01 0.000000e+00 0.000000e+00
1
Step 446000
Ar 6.916325e-01 0.000000e+00 0.000000e+00
1
Step 447000
Ar 8.784094e-01 0.000000e+00 0.000000e+00
1
Step 448000
Ar 8.814558e-01 0.000000e+00 0.000000e+00
1
Step 449000
Ar 8.322347e-01 0.000000e+00 0.000000e+00
1
Step 450000
Ar 5.979409e-01 0.000000e+00 0.000000e+00
1
Step 451000
Ar 8.786602e-01 0.000000e+00 0.000000e+00
1
Step 452000
Ar 7.563525e-01 0.000000e+00 0.000000e+00
1
Step 453000
Ar 6.942720e-01 0.000000e+00 0.000000e+00
1
Step 454000
Ar 9.019440e-01 0.000000e+00 0.000000e+00
1
Step 455000
Ar 9.051463e-01 0.000000e+00 0.000000e+00
1
Step 456000
Ar 9.046672e-01 0.000000e+00 0.000000e+00
1
Step 457000
Ar 7.303873e-01 0.000000e+00 0.000000e+00
1
Step 458000
Ar 8.703519e-01 0.000000e+00 0.000000e+00
1
Step 459000
Ar 9.135523e-01 0.000000e+00 0.000000e+00
1
Step 460000
Ar 8.866235e-01 0.000000e+00 0.000000e+00
1
Step 461000
Ar 7.196683e-01 0.000000e+00 0.000000e+00
1
Step 462000
Ar 8.842359e-01 0.000000e+00 0.000000e+00
1
Step 463000
Ar 9.065681e-01 0.000000e+00 0.000000e+00
1
Step 464000
Ar 7.237045e-01 0.000000e+00 0.000000e+00
1
Step 465000
Ar 6.935836e-01 0.000000e+00 0.000000e+00
1
Step 466000
Ar 8.027362e-01 0.000000e+00 0.000000e+00
1
Step 467000
Ar 8.038177e-01 0.000000e+00 0.000000e+00
1
Step 468000
Ar 8.094452e-01 0.000000e+00 0.000000e+00
1
Step 469000
Ar 8.574191e-01 0.000000e+00 0.000000e+00
1
Step 470000
Ar 8.311388e-01 0.000000e+00 0.000000e+00
1
Step 471000
Ar 8.537760e-01 0.000000e+00 0.000000e+00
1
Step 472000
Ar 8.265930e-01 0.000000e+00 0.000000e+00
1
Step 473000
Ar 8.964754e-01 0.000000e+00 0.000000e+00
1
Step 474000
Ar 8.148945e-01 0.000000e+00 0.000000e+00
1
Step 475000
Ar 7.938299e-01 0.000000e+00 0.000000e+00
1
Step 476000
Ar 8.889247e-01 0.000000e+00 0.000000e+00
1
Step 477000
Ar 8.199581e-01 0.000000e+00 0.000000e+00
1
Step 478000
Ar 9.072403e-01 0.000000e+00 0.000000e+00
1
Step 479000
Ar 8.746644e-01 0.000000e+00 0.000000e+00
1
Step 480000
Ar 8.629956e-01 0.000000e+00 0.000000e+00
1
Step 481000
Ar 7.487347e-01 0.000000e+00 0.000000e+00
1
Step 482000
Ar 8.847323e-01 0.000000e+00 0.000000e+00
1
Step 483000
Ar 8.902906e-01 0.000000e+00 0.000000e+00
1
Step 484000
Ar 9.170736e-01 0.000000e+00 0.000000e+00
1
Step 485000
Ar 7.439193e-01 0.000000e+00 0.000000e+00
1
Step 486000
Ar 8.779934e-01 0.000000e+00 0.000000e+00
1
Step 487000
Ar 7.986260e-01 0.000000e+00 0.000000e+00
1
Step 488000
Ar 6.891768e-01 0.000000e+00 0.000000e+00
1
Step 489000
Ar 8.918270e-01 0.000000e+00 0.000000e+00
1
Step 490000
Ar 7.642422e-01 0.000000e+00 0.000000e+00
1
Step 491000
Ar 7.147148e-01 0.000000e+00 0.000000e+00
1
Step 492000
Ar 9.065089e-01 0.000000e+00 0.000000e+00
1
Step 493000
Ar 7.787533e-01 0.000000e+00 0.000000e+00
1
Step 494000
Ar 8.302934e-01 0.000000e+00 0.000000e+00
1
Step 495000
Ar 9.095204e-01 0.000000e+00 0.000000e+00
1
Step 496000
Ar 8.118807e-01 0.000000e+00 0.000000e+00
1
Step 497000
Ar 8.307587e-01 0.000000e+00 0.000000e+00
1
Step 498000
Ar 8.866668e-01 0.000000e+00 0.000000e+00
1
Step 499000
Ar 8.299981e-01 0.000000e+00 0.000000e+00
1
Step 500000
Ar 8.014429e-01 0.000000e+00 0.000000e+00
1
Step 501000
Ar 8.395303e-01 0.000000e+00 0.000000e+00
1
Step 502000
Ar 8.923937e-01 0.000000e+00 0.000000e+00
1
Step 503000
Ar 9.113446e-01 0.000000e+00 0.000000e+00
1
Step 504000
Ar 9.022442e-01 0.000000e+00 0.000000e+00
1
Step 505000
Ar 8.607311e-01 0.000000e+00 0.000000e+00
1
Step 506000
Ar 6.318411e-01 0.000000e+00 0.000000e+00
1
Step 507000
Ar 9.096868e-01 0.000000e+00 0.000000e+00
1
Step 508000
Ar 8.062385e-01 0.000000e+00 0.000000e+00
1
Step 509000
Ar 6.476440e-01 0.000000e+00 0.000000e+00
1
Step 510000
Ar 9.110668e-01 0.000000e+00 0.000000e+00
1
Step 511000
Ar 7.694742e-01 0.000000e+00 0.000000e+00
1
Step 512000
Ar 7.806798e-01 0.000000e+00 0.000000e+00
1
Step 513000
Ar 8.250705e-01 0.000000e+00 0.000000e+00
1
Step 514000
Ar 8.785587e-01 0.000000e+00 0.000000e+00
1
Step 515000
Ar 8.543735e-01 0.000000e+00 0.000000e+00
1
Step 516000
Ar 8.852385e-01 0.000000e+00 0.000000e+00
1
Step 517000
Ar 8.939588e-01 0.000000e+00 0.000000e+00
1
Step 518000
Ar 8.619514e-01 0.000000e+00 0.000000e+00
1
Step 519000
Ar 9.136007e-01 0.000000e+00 0.000000e+00
1
Step 520000
Ar 8.656765e-01 0.000000e+00 0.000000e+00
1
Step 521000
Ar 8.505847e-01 0.000000e+00 0.000000e+00
1
Step 522000
Ar 8.475670e-01 0.000000e+00 0.000000e+00
1
Step 523000
Ar 8.186699e-01 0.000000e+00 0.000000e+00
1
Step 524000
Ar 9.058386e-01 0.000000e+00 0.000000e+00
1
Step 525000
Ar 9.125794e-01 0.000000e+00 0.000000e+00
1
Step 526000
Ar 6.669220e-01 0.000000e+00 0.000000e+00
1
Step 527000
Ar 7.979743e-01 0.000000e+00 0.000000e+00
1
Step 528000
Ar 8.282058e-01 0.000000e+00 0.000000e+00
1
Step 529000
Ar 7.320257e-01 0.000000e+00 0.000000e+00
1
Step 530000
Ar 7.946768e-01 0.000000e+00 0.000000e+00
1
Step 531000
Ar 8.926039e-01 0.000000e+00 0.000000e+00
1
Step 532000
Ar 8.975048e-01 0.000000e+00 0.000000e+00
1
Step 533000
Ar 8.844982e-01 0.000000e+00 0.000000e+00
1
Step 534000
Ar 7.990586e-01 0.000000e+00 0.000000e+00
1
Step 535000
Ar 8.749243e-01 0.000000e+00 0.000000e+00
1
Step 536000
Ar 8.233700e-01 0.000000e+00 0.000000e+00
1
Step 537000
Ar 7.161045e-01 0.000000e+00 0.000000e+00
1
Step 538000
Ar 8.788389e-01 0.000000e+00 0.000000e+00
1
Step 539000
Ar 8.019313e-01 0.000000e+00 0.000000e+00
1
Step 540000
Ar 8.482344e-01 0.000000e+00 0.000000e+00
1
Step 541000
Ar 8.730415e-01 0.000000e+00 0.000000e+00
1
Step 542000
Ar 8.541775e-01 0.000000e+00 0.000000e+00
1
Step 543000
Ar 7.699866e-01 0.000000e+00 0.000000e+00
1
Step 544000
Ar 7.897173e-01 0.000000e+00 0.000000e+00
1
Step 545000
Ar 7.532764e-01 0.000000e+00 0.000000e+00
1
Step 546000
Ar 8.641285e-01 0.000000e+00 0.000000e+00
1
Step 547000
Ar 8.757224e-01 0.000000e+00 0.000000e+00
1
Step 548000
Ar 8.416065e-01 0.000000e+00 0.000000e+00
1
Step 549000
Ar 8.425848e-01 0.000000e+00 0.000000e+00
1
Step 550000
Ar 8.735169e-01 0.000000e+00 0.000000e+00
1
Step 551000
Ar 8.057417e-01 0.000000e+00 0.000000e+00
1
Step 552000
Ar 9.124216e-01 0.000000e+00 0.000000e+00
1
Step 553000
Ar 8.476955e-01 0.000000e+00 0.000000e+00
1
Step 554000
Ar 8.594031e-01 0.000000e+00 0.000000e+00
1
Step 555000
Ar 8.504885e-01 0.000000e+00 0.000000e+00
1
Step 556000
Ar 8.855247e-01 0.000000e+00 0.000000e+00
1
Step 557000
Ar 8.722523e-01 0.000000e+00 0.000000e+00
1
Step 558000
Ar 8.533921e-01 0.000000e+00 0.000000e+00
1
Step 559000
Ar 8.857718e-01 0.000000e+00 0.000000e+00
1
Step 560000
Ar 8.640089e-01 0.000000e+00 0.000000e+00
1
Step 561000
Ar 8.631421e-01 0.000000e+00 0.000000e+00
1
Step 562000
Ar 6.406748e-01 0.000000e+00 0.000000e+00
1
Step 563000
Ar 9.161545e-01 0.000000e+00 0.000000e+00
1
Step 564000
Ar 8.496020e-01 0.000000e+00 0.000000e+00
1
Step 565000
Ar 8.986806e-01 0.000000e+00 0.000000e+00
1
Step 566000
Ar 8.707186e-01 0.000000e+00 0.000000e+00
1
Step 567000
Ar 9.112963e-01 0.000000e+00 0.000000e+00
1
Step 568000
Ar 7.289793e-01 0.000000e+00 0.000000e+00
1
Step 569000
Ar 8.748329e-01 0.000000e+00 0.000000e+00
1
Step 570000
Ar 8.509100e-01 0.000000e+00 0.000000e+00
1
Step 571000
Ar 9.090148e-01 0.000000e+00 0.000000e+00
1
Step 572000
Ar 8.237585e-01 0.000000e+00 0.000000e+00
1
Step 573000
Ar 8.303340e-01 0.000000e+00 0.000000e+00
1
Step 574000
Ar 7.310757e-01 0.000000e+00 0.000000e+00
1
Step 575000
Ar 9.172614e-01 0.000000e+00 0.000000e+00
1
Step 576000
Ar 8.696883e-01 0.000000e+00 0.000000e+00
1
Step 577000
Ar 8.208017e-01 0.000000e+00 0.000000e+00
1
Step 578000
Ar 8.692926e-01 0.000000e+00 0.000000e+00
1
Step 579000
Ar 8.642025e-01 0.000000e+00 0.000000e+00
1
Step 580000
Ar 8.789675e-01 0.000000e+00 0.000000e+00
1
Step 581000
Ar 7.471323e-01 0.000000e+00 0.000000e+00
1
Step 582000
Ar 8.668359e-01 0.000000e+00 0.000000e+00
1
Step 583000
Ar 8.318576e-01 0.000000e+00 0.000000e+00
1
Step 584000
Ar 7.696541e-01 0.000000e+00 0.000000e+00
1
Step 585000
Ar 8.697258e-01 0.000000e+00 0.000000e+00
1
Step 586000
Ar 7.503553e-01 0.000000e+00 0.000000e+00
1
Step 587000
Ar 9.049916e-01 0.000000e+00 0.000000e+00
1
Step 588000
Ar 8.715646e-01 0.000000e+00 0.000000e+00
1
Step 589000
Ar 8.679810e-01 0.000000e+00 0.000000e+00
1
Step 590000
Ar 9.079354e-01 0.000000e+00 0.000000e+00
1
Step 591000
Ar 8.539315e-01 0.000000e+00 0.000000e+00
1
Step 592000
Ar 9.053588e-01 0.000000e+00 0.000000e+00
1
Step 593000
Ar 8.390110e-01 0.000000e+00 0.000000e+00
1
Step 594000
Ar 8.915574e-01 0.000000e+00 0.000000e+00
1
Step 595000
Ar 8.785026e-01 0.000000e+00 0.000000e+00
1
Step 596000
Ar 9.191597e-01 0.000000e+00 0.000000e+00
1
Step 597000
Ar 8.726317e-01 0.000000e+00 0.000000e+00
1
Step 598000
Ar 8.703979e-01 0.000000e+00 0.000000e+00
1
Step 599000
Ar 7.534540e-01 0.000000e+00 0.000000e+00
1
Step 600000
Ar 9.158943e-01 0.000000e+00 0.000000e+00
1
Step 601000
Ar 9.031681e-01 0.000000e+00 0.000000e+00
1
Step 602000
Ar 6.315910e-01 0.000000e+00 0.000000e+00
1
Step 603000
Ar 7.771614e-01 0.000000e+00 0.000000e+00
1
Step 604000
Ar 8.134404e-01 0.000000e+00 0.000000e+00
1
Step 605000
Ar 7.772562e-01 0.000000e+00 0.000000e+00
1
Step 606000
Ar 6.390634e-01 0.000000e+00 0.000000e+00
1
Step 607000
Ar 8.187217e-01 0.000000e+00 0.000000e+00
1
Step 608000
Ar 9.141643e-01 0.000000e+00 0.000000e+00
1
Step 609000
Ar 8.942622e-01 0.000000e+00 0.000000e+00
1
Step 610000
Ar 8.747940e-01 0.000000e+00 0.000000e+00
1
Step 611000
Ar 8.534916e-01 0.000000e+00 0.000000e+00
1
Step 612000
Ar 8.943433e-01 0.000000e+00 0.000000e+00
1
Step 613000
Ar 8.779129e-01 0.000000e+00 0.000000e+00
1
Step 614000
Ar 7.875329e-01 0.000000e+00 0.000000e+00
1
Step 615000
Ar 9.131894e-01 0.000000e+00 0.000000e+00
1
Step 616000
Ar 7.898333e-01 0.000000e+00 0.000000e+00
1
Step 617000
Ar 8.511458e-01 0.000000e+00 0.000000e+00
1
Step 618000
Ar 7.456809e-01 0.000000e+00 0.000000e+00
1
Step 619000
Ar 9.159445e-01 0.000000e+00 0.000000e+00
1
Step 620000
Ar 8.100271e-01 0.000000e+00 0.000000e+00
1
Step 621000
Ar 9.091775e-01 0.000000e+00 0.000000e+00
1
Step 622000
Ar 8.103339e-01 0.000000e+00 0.000000e+00
1
Step 623000
Ar 8.711388e-01 0.000000e+00 0.000000e+00
1
Step 624000
Ar 7.124673e-01 0.000000e+00 0.000000e+00
1
Step 625000
Ar 8.477861e-01 0.000000e+00 0.000000e+00
1
Step 626000
Ar 6.059199e-01 0.000000e+00 0.000000e+00
1
Step 627000
Ar 8.987831e-01 0.000000e+00 0.000000e+00
1
Step 628000
Ar 8.883207e-01 0.000000e+00 0.000000e+00
1
Step 629000
Ar 8.972731e-01 0.000000e+00 0.000000e+00
1
Step 630000
Ar 8.397748e-01 0.000000e+00 0.000000e+00
1
Step 631000
Ar 9.194578e-01 0.000000e+00 0.000000e+00
1
Step 632000
Ar 8.447241e-01 0.000000e+00 0.000000e+00
1
Step 633000
Ar 8.017830e-01 0.000000e+00 0.000000e+00
1
Step 634000
Ar 8.796720e-01 0.000000e+00 0.000000e+00
1
Step 635000
Ar 8.856565e-01 0.000000e+00 0.000000e+00
1
Step 636000
Ar 7.819907e-01 0.000000e+00 0.000000e+00
1
Step 637000
Ar 9.138833e-01 0.000000e+00 0.000000e+00
1
Step 638000
Ar 7.727380e-01 0.000000e+00 0.000000e+00
1
Step 639000
Ar 7.793366e-01 0.000000e+00 0.000000e+00
1
Step 640000
Ar 7.478705e-01 0.000000e+00 0.000000e+00
1
Step 641000
Ar 8.761521e-01 0.000000e+00 0.000000e+00
1
Step 642000
Ar 9.147438e-01 0.000000e+00 0.000000e+00
1
Step 643000
Ar 7.652459e-01 0.000000e+00 0.000000e+00
1
Step 644000
Ar 8.281977e-01 0.000000e+00 0.000000e+00
1
Step 645000
Ar 8.559646e-01 0.000000e+00 0.000000e+00
1
Step 646000
Ar 7.134878e-01 0.000000e+00 0.000000e+00
1
Step 647000
Ar 7.682095e-01 0.000000e+00 0.000000e+00
1
Step 648000
Ar 8.441953e-01 0.000000e+00 0.000000e+00
1
Step 649000
Ar 7.452751e-01 0.000000e+00 0.000000e+00
1
Step 650000
Ar 7.989006e-01 0.000000e+00 0.000000e+00
1
Step 651000
Ar 8.789882e-01 0.000000e+00 0.000000e+00
1
Step 652000
Ar 8.878177e-01 0.000000e+00 0.000000e+00
1
Step 653000
Ar 9.248018e-01 0.000000e+00 0.000000e+00
1
Step 654000
Ar 7.124314e-01 0.000000e+00 0.000000e+00
1
Step 655000
Ar 7.174727e-01 0.000000e+00 0.000000e+00
1
Step 656000
Ar 7.566245e-01 0.000000e+00 0.000000e+00
1
Step 657000
Ar 8.137540e-01 0.000000e+00 0.000000e+00
1
Step 658000
Ar 8.746835e-01 0.000000e+00 0.000000e+00
1
Step 659000
Ar 8.309516e-01 0.000000e+00 0.000000e+00
1
Step 660000
Ar 6.754293e-01 0.000000e+00 0.000000e+00
1
Step 661000
Ar 9.142116e-01 0.000000e+00 0.000000e+00
1
Step 662000
Ar 9.141490e-01 0.000000e+00 0.000000e+00
1
Step 663000
Ar 8.296625e-01 0.000000e+00 0.000000e+00
1
Step 664000
Ar 8.742447e-01 0.000000e+00 0.000000e+00
1
Step 665000
Ar 8.958836e-01 0.000000e+00 0.000000e+00
1
Step 666000
Ar 7.314925e-01 0.000000e+00 0.000000e+00
1
Step 667000
Ar 8.282094e-01 0.000000e+00 0.000000e+00
1
Step 668000
Ar 8.508612e-01 0.000000e+00 0.000000e+00
1
Step 669000
Ar 6.206717e-01 0.000000e+00 0.000000e+00
1
Step 670000
Ar 9.079627e-01 0.000000e+00 0.000000e+00
1
Step 671000
Ar 8.834041e-01 0.000000e+00 0.000000e+00
1
Step 672000
Ar 8.907729e-01 0.000000e+00 0.000000e+00
1
Step 673000
Ar 8.878812e-01 0.000000e+00 0.000000e+00
1
Step 674000
Ar 8.037271e-01 0.000000e+00 0.000000e+00
1
Step 675000
Ar 9.101550e-01 0.000000e+00 0.000000e+00
1
Step 676000
Ar 9.062105e-01 0.000000e+00 0.000000e+00
1
Step 677000
Ar 8.349493e-01 0.000000e+00 0.000000e+00
1
Step 678000
Ar 8.293029e-01 0.000000e+00 0.000000e+00
1
Step 679000
Ar 8.301989e-01 0.000000e+00 0.000000e+00
1
Step 680000
Ar 8.761377e-01 0.000000e+00 0.000000e+00
1
Step 681000
Ar 8.882577e-01 0.000000e+00 0.000000e+00
1
Step 682000
Ar 8.021505e-01 0.000000e+00 0.000000e+00
1
Step 683000
Ar 7.201405e-01 0.000000e+00 0.000000e+00
1
Step 684000
Ar 9.123139e-01 0.000000e+00 0.000000e+00
1
Step 685000
Ar 6.638112e-01 0.000000e+00 0.000000e+00
1
Step 686000
Ar 8.983858e-01 0.000000e+00 0.000000e+00
1
Step 687000
Ar 6.404374e-01 0.000000e+00 0.000000e+00
1
Step 688000
Ar 7.419819e-01 0.000000e+00 0.000000e+00
1
Step 689000
Ar 8.901573e-01 0.000000e+00 0.000000e+00
1
Step 690000
Ar 3.871591e-01 0.000000e+00 0.000000e+00
1
Step 691000
Ar 8.803247e-01 0.000000e+00 0.000000e+00
1
Step 692000
Ar 7.268810e-01 0.000000e+00 0.000000e+00
1
Step 693000
Ar 8.027014e-01 0.000000e+00 0.000000e+00
1
Step 694000
Ar 9.099329e-01 0.000000e+00 0.000000e+00
1
Step 695000
Ar 8.989513e-01 0.000000e+00 0.000000e+00
1
Step 696000
Ar 8.442807e-01 0.000000e+00 0.000000e+00
1
Step 697000
Ar 8.829386e-01 0.000000e+00 0.000000e+00
1
Step 698000
Ar 8.820421e-01 0.000000e+00 0.000000e+00
1
Step 699000
Ar 8.458852e-01 0.000000e+00 0.000000e+00
1
Step 700000
Ar 7.746789e-01 0.000000e+00 0.000000e+00
1
Step 701000
Ar 8.590932e-01 0.000000e+00 0.000000e+00
1
Step 702000
Ar 9.042746e-01 0.000000e+00 0.000000e+00
1
Step 703000
Ar 8.251017e-01 0.000000e+00 0.000000e+00
1
Step 704000
Ar 8.628590e-01 0.000000e+00 0.000000e+00
1
Step 705000
Ar 9.023139e-01 0.000000e+00 0.000000e+00
1
Step 706000
Ar 7.743019e-01 0.000000e+00 0.000000e+00
1
Step 707000
Ar 7.873077e-01 0.000000e+00 0.000000e+00
1
Step 708000
Ar 8.477925e-01 0.000000e+00 0.000000e+00
1
Step 709000
Ar 8.522602e-01 0.000000e+00 0.000000e+00
1
Step 710000
Ar 7.609638e-01 0.000000e+00 0.000000e+00
1
Step 711000
Ar 8.971340e-01 0.000000e+00 0.000000e+00
1
Step 712000
Ar 6.759183e-01 0.000000e+00 0.000000e+00
1
Step 713000
Ar 8.617593e-01 0.000000e+00 0.000000e+00
1
Step 714000
Ar 9.162141e-01 0.000000e+00 0.000000e+00
1
Step 715000
Ar 8.929371e-01 0.000000e+00 0.000000e+00
1
Step 716000
Ar 8.219755e-01 0.000000e+00 0.000000e+00
1
Step 717000
Ar 7.903761e-01 0.000000e+00 0.000000e+00
1
Step 718000
Ar 8.314204e-01 0.000000e+00 0.000000e+00
1
Step 719000
Ar 9.030179e-01 0.000000e+00 0.000000e+00
1
Step 720000
Ar 8.335176e-01 0.000000e+00 0.000000e+00
1
Step 721000
Ar 8.022995e-01 0.000000e+00 0.000000e+00
1
Step 722000
Ar 9.115946e-01 0.000000e+00 0.000000e+00
1
Step 723000
Ar 8.091672e-01 0.000000e+00 0.000000e+00
1
Step 724000
Ar 8.097378e-01 0.000000e+00 0.000000e+00
1
Step 725000
Ar 8.259088e-01 0.000000e+00 0.000000e+00
1
Step 726000
Ar 8.166566e-01 0.000000e+00 0.000000e+00
1
Step 727000
Ar 8.149976e-01 0.000000e+00 0.000000e+00
1
Step 728000
Ar 9.158824e-01 0.000000e+00 0.000000e+00
1
Step 729000
Ar 7.989845e-01 0.000000e+00 0.000000e+00
1
Step 730000
Ar 8.380139e-01 0.000000e+00 0.000000e+00
1
Step 731000
Ar 8.285191e-01 0.000000e+00 0.000000e+00
1
Step 732000
Ar 9.041327e-01 0.000000e+00 0.000000e+00
1
Step 733000
Ar 7.836585e-01 0.000000e+00 0.000000e+00
1
Step 734000
Ar 9.151846e-01 0.000000e+00 0.000000e+00
1
Step 735000
Ar 8.901123e-01 0.000000e+00 0.000000e+00
1
Step 736000
Ar 8.999051e-01 0.000000e+00 0.000000e+00
1
Step 737000
Ar 8.708255e-01 0.000000e+00 0.000000e+00
1
Step 738000
Ar 9.126308e-01 0.000000e+00 0.000000e+00
1
Step 739000
Ar 8.549769e-01 0.000000e+00 0.000000e+00
1
Step 740000
Ar 8.225670e-01 0.000000e+00 0.000000e+00
1
Step 741000
Ar 7.094906e-01 0.000000e+00 0.000000e+00
1
Step 742000
Ar 8.130425e-01 0.000000e+00 0.000000e+00
1
Step 743000
Ar 8.654743e-01 0.000000e+00 0.000000e+00
1
Step 744000
Ar 7.858157e-01 0.000000e+00 0.000000e+00
1
Step 745000
Ar 6.180895e-01 0.000000e+00 0.000000e+00
1
Step 746000
Ar 8.283859e-01 0.000000e+00 0.000000e+00
1
Step 747000
Ar 7.346261e-01 0.000000e+00 0.000000e+00
1
Step 748000
Ar 9.125171e-01 0.000000e+00 0.000000e+00
1
Step 749000
Ar 9.182248e-01 0.000000e+00 0.000000e+00
1
Step 750000
Ar 8.553206e-01 0.000000e+00 0.000000e+00
1
Step 751000
Ar 8.970754e-01 0.000000e+00 0.000000e+00
1
Step 752000
Ar 8.932612e-01 0.000000e+00 0.000000e+00
1
Step 753000
Ar 9.106237e-01 0.000000e+00 0.000000e+00
1
Step 754000
Ar 9.138387e-01 0.000000e+00 0.000000e+00
1
Step 755000
Ar 9.156616e-01 0.000000e+00 0.000000e+00
1
Step 756000
Ar 9.123521e-01 0.000000e+00 0.000000e+00
1
Step 757000
Ar 9.026899e-01 0.000000e+00 0.000000e+00
1
Step 758000
Ar 8.249446e-01 0.000000e+00 0.000000e+00
1
Step 759000
Ar 8.604110e-01 0.000000e+00 0.000000e+00
1
Step 760000
Ar 4.954779e-01 0.000000e+00 0.000000e+00
1
Step 761000
Ar 8.527160e-01 0.000000e+00 0.000000e+00
1
Step 762000
Ar 8.799468e-01 0.000000e+00 0.000000e+00
1
Step 763000
Ar 8.957441e-01 0.000000e+00 0.000000e+00
1
Step 764000
Ar 8.521927e-01 0.000000e+00 0.000000e+00
1
Step 765000
Ar 7.565769e-01 0.000000e+00 0.000000e+00
1
Step 766000
Ar 7.490819e-01 0.000000e+00 0.000000e+00
1
Step 767000
Ar 8.537151e-01 0.000000e+00 0.000000e+00
1
Step 768000
Ar 9.025564e-01 0.000000e+00 0.000000e+00
1
Step 769000
Ar 8.737365e-01 0.000000e+00 0.000000e+00
1
Step 770000
Ar 8.869169e-01 0.000000e+00 0.000000e+00
1
Step 771000
Ar 8.380590e-01 0.000000e+00 0.000000e+00
1
Step 772000
Ar 8.558373e-01 0.000000e+00 0.000000e+00
1
Step 773000
Ar 8.547872e-01 0.000000e+00 0.000000e+00
1
Step 774000
Ar 7.933661e-01 0.000000e+00 0.000000e+00
1
Step 775000
Ar 9.013808e-01 0.000000e+00 0.000000e+00
1
Step 776000
Ar 9.005429e-01 0.000000e+00 0.000000e+00
1
Step 777000
Ar 8.562247e-01 0.000000e+00 0.000000e+00
1
Step 778000
Ar 9.136265e-01 0.000000e+00 0.000000e+00
1
Step 779000
Ar 9.139404e-01 0.000000e+00 0.000000e+00
1
Step 780000
Ar 7.777727e-01 0.000000e+00 0.000000e+00
1
Step 781000
Ar 8.435982e-01 0.000000e+00 0.000000e+00
1
Step 782000
Ar 9.134245e-01 0.000000e+00 0.000000e+00
1
Step 783000
Ar 8.945236e-01 0.000000e+00 0.000000e+00
1
Step 784000
Ar 8.439275e-01 0.000000e+00 0.000000e+00
1
Step 785000
Ar 8.685746e-01 0.000000e+00 0.000000e+00
1
Step 786000
Ar 7.664057e-01 0.000000e+00 0.000000e+00
1
Step 787000
Ar 8.800622e-01 0.000000e+00 0.000000e+00
1
Step 788000
Ar 8.699801e-01 0.000000e+00 0.000000e+00
1
Step 789000
Ar 8.721208e-01 0.000000e+00 0.000000e+00
1
Step 790000
Ar 8.636472e-01 0.000000e+00 0.000000e+00
1
Step 791000
Ar 8.612658e-01 0.000000e+00 0.000000e+00
1
Step 792000
Ar 8.206209e-01 0.000000e+00 0.000000e+00
1
Step 793000
Ar 7.282801e-01 0.000000e+00 0.000000e+00
1
Step 794000
Ar 8.934305e-01 0.000000e+00 0.000000e+00
1
Step 795000
Ar 9.232684e-01 0.000000e+00 0.000000e+00
1
Step 796000
Ar 9.037562e-01 0.000000e+00 0.000000e+00
1
Step 797000
Ar 8.467596e-01 0.000000e+00 0.000000e+00
1
Step 798000
Ar 8.681313e-01 0.000000e+00 0.000000e+00
1
Step 799000
Ar 7.906903e-01 0.000000e+00 0.000000e+00
1
Step 800000
Ar 4.915583e-01 0.000000e+00 0.000000e+00
1
Step 801000
Ar 9.009085e-01 0.000000e+00 0.000000e+00
1
Step 802000
Ar 8.249821e-01 0.000000e+00 0.000000e+00
1
Step 803000
Ar 9.059094e-01 0.000000e+00 0.000000e+00
1
Step 804000
Ar 8.818518e-01 0.000000e+00 0.000000e+00
1
Step 805000
Ar 7.903987e-01 0.000000e+00 0.000000e+00
1
Step 806000
Ar 8.317700e-01 0.000000e+00 0.000000e+00
1
Step 807000
Ar 9.052506e-01 0.000000e+00 0.000000e+00
1
Step 808000
Ar 8.148289e-01 0.000000e+00 0.000000e+00
1
Step 809000
Ar 9.207307e-01 0.000000e+00 0.000000e+00
1
Step 810000
Ar 8.717350e-01 0.000000e+00 0.000000e+00
1
Step 811000
Ar 8.077154e-01 0.000000e+00 0.000000e+00
1
Step 812000
Ar 8.216058e-01 0.000000e+00 0.000000e+00
1
Step 813000
Ar 7.689052e-01 0.000000e+00 0.000000e+00
1
Step 814000
Ar 8.317379e-01 0.000000e+00 0.000000e+00
1
Step 815000
Ar 6.293052e-01 0.000000e+00 0.000000e+00
1
Step 816000
Ar 8.029693e-01 0.000000e+00 0.000000e+00
1
Step 817000
Ar 8.117109e-01 0.000000e+00 0.000000e+00
1
Step 818000
Ar 8.903511e-01 0.000000e+00 0.000000e+00
1
Step 819000
Ar 7.501191e-01 0.000000e+00 0.000000e+00
1
Step 820000
Ar 8.008332e-01 0.000000e+00 0.000000e+00
1
Step 821000
Ar 9.101979e-01 0.000000e+00 0.000000e+00
1
Step 822000
Ar 8.257161e-01 0.000000e+00 0.000000e+00
1
Step 823000
Ar 7.732968e-01 0.000000e+00 0.000000e+00
1
Step 824000
Ar 8.592176e-01 0.000000e+00 0.000000e+00
1
Step 825000
Ar 8.720292e-01 0.000000e+00 0.000000e+00
1
Step 826000
Ar 7.637901e-01 0.000000e+00 0.000000e+00
1
Step 827000
Ar 8.448773e-01 0.000000e+00 0.000000e+00
1
Step 828000
Ar 7.377913e-01 0.000000e+00 0.000000e+00
1
Step 829000
Ar 8.532260e-01 0.000000e+00 0.000000e+00
1
Step 830000
Ar 8.181585e-01 0.000000e+00 0.000000e+00
1
Step 831000
Ar 8.576001e-01 0.000000e+00 0.000000e+00
1
Step 832000
Ar 7.983739e-01 0.000000e+00 0.000000e+00
1
Step 833000
Ar 9.028152e-01 0.000000e+00 0.000000e+00
1
Step 834000
Ar 8.712336e-01 0.000000e+00 0.000000e+00
1
Step 835000
Ar 8.743378e-01 0.000000e+00 0.000000e+00
1
Step 836000
Ar 7.538369e-01 0.000000e+00 0.000000e+00
1
Step 837000
Ar 8.869046e-01 0.000000e+00 0.000000e+00
1
Step 838000
Ar 8.908575e-01 0.000000e+00 0.000000e+00
1
Step 839000
Ar 9.071035e-01 0.000000e+00 0.000000e+00
1
Step 840000
Ar 9.064378e-01 0.000000e+00 0.000000e+00
1
Step 841000
Ar 8.956183e-01 0.000000e+00 0.000000e+00
1
Step 842000
Ar 8.565513e-01 0.000000e+00 0.000000e+00
1
Step 843000
Ar 7.621444e-01 0.000000e+00 0.000000e+00
1
Step 844000
Ar 8.738539e-01 0.000000e+00 0.000000e+00
1
Step 845000
Ar 8.867478e-01 0.000000e+00 0.000000e+00
1
Step 846000
Ar 8.805496e-01 0.000000e+00 0.000000e+00
1
Step 847000
Ar 8.396860e-01 0.000000e+00 0.000000e+00
1
Step 848000
Ar 9.030202e-01 0.000000e+00 0.000000e+00
1
Step 849000
Ar 6.681692e-01 0.000000e+00 0.000000e+00
1
Step 850000
Ar 8.733420e-01 0.000000e+00 0.000000e+00
1
Step 851000
Ar 7.786845e-01 0.000000e+00 0.000000e+00
1
Step 852000
Ar 9.062789e-01 0.000000e+00 0.000000e+00
1
Step 853000
Ar 9.193081e-01 0.000000e+00 0.000000e+00
1
Step 854000
Ar 6.300123e-01 0.000000e+00 0.000000e+00
1
Step 855000
Ar 9.130075e-01 0.000000e+00 0.000000e+00
1
Step 856000
Ar 8.152364e-01 0.000000e+00 0.000000e+00
1
Step 857000
Ar 9.134877e-01 0.000000e+00 0.000000e+00
1
Step 858000
Ar 8.909292e-01 0.000000e+00 0.000000e+00
1
Step 859000
Ar 8.474097e-01 0.000000e+00 0.000000e+00
1
Step 860000
Ar 8.529157e-01 0.000000e+00 0.000000e+00
1
Step 861000
Ar 9.043181e-01 0.000000e+00 0.000000e+00
1
Step 862000
Ar 6.592269e-01 0.000000e+00 0.000000e+00
1
Step 863000
Ar 8.485593e-01 0.000000e+00 0.000000e+00
1
Step 864000
Ar 8.845320e-01 0.000000e+00 0.000000e+00
1
Step 865000
Ar 7.922970e-01 0.000000e+00 0.000000e+00
1
Step 866000
Ar 9.054348e-01 0.000000e+00 0.000000e+00
1
Step 867000
Ar 8.736054e-01 0.000000e+00 0.000000e+00
1
Step 868000
Ar 9.070924e-01 0.000000e+00 0.000000e+00
1
Step 869000
Ar 8.403442e-01 0.000000e+00 0.000000e+00
1
Step 870000
Ar 8.723782e-01 0.000000e+00 0.000000e+00
1
Step 871000
Ar 9.079378e-01 0.000000e+00 0.000000e+00
1
Step 872000
Ar 8.790764e-01 0.000000e+00 0.000000e+00
1
Step 873000
Ar 8.810600e-01 0.000000e+00 0.000000e+00
1
Step 874000
Ar 8.850360e-01 0.000000e+00 0.000000e+00
1
Step 875000
Ar 8.930715e-01 0.000000e+00 0.000000e+00
1
Step 876000
Ar 7.896810e-01 0.000000e+00 0.000000e+00
1
Step 877000
Ar 8.040795e-01 0.000000e+00 0.000000e+00
1
Step 878000
Ar 8.279528e-01 0.000000e+00 0.000000e+00
1
Step 879000
Ar 7.566740e-01 0.000000e+00 0.000000e+00
1
Step 880000
Ar 8.403161e-01 0.000000e+00 0.000000e+00
1
Step 881000
Ar 8.947997e-01 0.000000e+00 0.000000e+00
1
Step 882000
Ar 9.000573e-01 0.000000e+00 0.000000e+00
1
Step 883000
Ar 8.211450e-01 0.000000e+00 0.000000e+00
1
Step 884000
Ar 9.018795e-01 0.000000e+00 0.000000e+00
1
Step 885000
Ar 8.397276e-01 0.000000e+00 0.000000e+00
1
Step 886000
Ar 7.314327e-01 0.000000e+00 0.000000e+00
1
Step 887000
Ar 8.876290e-01 0.000000e+00 0.000000e+00
1
Step 888000
Ar 8.685300e-01 0.000000e+00 0.000000e+00
1
Step 889000
Ar 8.568948e-01 0.000000e+00 0.000000e+00
1
Step 890000
Ar 8.361256e-01 0.000000e+00 0.000000e+00
1
Step 891000
Ar 8.422608e-01 0.000000e+00 0.000000e+00
1
Step 892000
Ar 9.141793e-01 0.000000e+00 0.000000e+00
1
Step 893000
Ar 8.561693e-01 0.000000e+00 0.000000e+00
1
Step 894000
Ar 8.477231e-01 0.000000e+00 0.000000e+00
1
Step 895000
Ar 9.109345e-01 0.000000e+00 0.000000e+00
1
Step 896000
Ar 8.724564e-01 0.000000e+00 0.000000e+00
1
Step 897000
Ar 8.154656e-01 0.000000e+00 0.000000e+00
1
Step 898000
Ar 8.534395e-01 0.000000e+00 0.000000e+00
1
Step 899000
Ar 7.812308e-01 0.000000e+00 0.000000e+00
1
Step 900000
Ar 7.322100e-01 0.000000e+00 0.000000e+00
1
Step 901000
Ar 8.393017e-01 0.000000e+00 0.000000e+00
1
Step 902000
Ar 8.795520e-01 0.000000e+00 0.000000e+00
1
Step 903000
Ar 9.063419e-01 0.000000e+00 0.000000e+00
1
Step 904000
Ar 8.072956e-01 0.000000e+00 0.000000e+00
1
Step 905000
Ar 9.196972e-01 0.000000e+00 0.000000e+00
1
Step 906000
Ar 8.781114e-01 0.000000e+00 0.000000e+00
1
Step 907000
Ar 8.815756e-01 0.000000e+00 0.000000e+00
1
Step 908000
Ar 8.983719e-01 0.000000e+00 0.000000e+00
1
Step 909000
Ar 9.064965e-01 0.000000e+00 0.000000e+00
1
Step 910000
Ar 6.857360e-01 0.000000e+00 0.000000e+00
1
Step 911000
Ar 8.615833e-01 0.000000e+00 0.000000e+00
1
Step 912000
Ar 8.261095e-01 0.000000e+00 0.000000e+00
1
Step 913000
Ar 8.916558e-01 0.000000e+00 0.000000e+00
1
Step 914000
Ar 8.799795e-01 0.000000e+00 0.000000e+00
1
Step 915000
Ar 8.402861e-01 0.000000e+00 0.000000e+00
1
Step 916000
Ar 7.934345e-01 0.000000e+00 0.000000e+00
1
Step 917000
Ar 9.072827e-01 0.000000e+00 0.000000e+00
1
Step 918000
Ar 7.191504e-01 0.000000e+00 0.000000e+00
1
Step 919000
Ar 8.370294e-01 0.000000e+00 0.000000e+00
1
Step 920000
Ar 8.859901e-01 0.000000e+00 0.000000e+00
1
Step 921000
Ar 8.700492e-01 0.000000e+00 0.000000e+00
1
Step 922000
Ar 7.809671e-01 0.000000e+00 0.000000e+00
1
Step 923000
Ar 8.766297e-01 0.000000e+00 0.000000e+00
1
Step 924000
Ar 8.991462e-01 0.000000e+00 0.000000e+00
1
Step 925000
Ar 8.994948e-01 0.000000e+00 0.000000e+00
1
Step 926000
Ar 8.793468e-01 0.000000e+00 0.000000e+00
1
Step 927000
Ar 8.883343e-01 0.000000e+00 0.000000e+00
1
Step 928000
Ar 8.752726e-01 0.000000e+00 0.000000e+00
1
Step 929000
Ar 7.819098e-01 0.000000e+00 0.000000e+00
1
Step 930000
Ar 8.434894e-01 0.000000e+00 0.000000e+00
1
Step 931000
Ar 8.595817e-01 0.000000e+00 0.000000e+00
1
Step 932000
Ar 8.495201e-01 0.000000e+00 0.000000e+00
1
Step 933000
Ar 8.486480e-01 0.000000e+00 0.000000e+00
1
Step 934000
Ar 9.149235e-01 0.000000e+00 0.000000e+00
1
Step 935000
Ar 7.004888e-01 0.000000e+00 0.000000e+00
1
Step 936000
Ar 8.080068e-01 0.000000e+00 0.000000e+00
1
Step 937000
Ar 8.882858e-01 0.000000e+00 0.000000e+00
1
Step 938000
Ar 8.627023e-01 0.000000e+00 0.000000e+00
1
Step 939000
Ar 8.618970e-01 0.000000e+00 0.000000e+00
1
Step 940000
Ar 9.063148e-01 0.000000e+00 0.000000e+00
1
Step 941000
Ar 8.098964e-01 0.000000e+00 0.000000e+00
1
Step 942000
Ar 8.850045e-01 0.000000e+00 0.000000e+00
1
Step 943000
Ar 8.522175e-01 0.000000e+00 0.000000e+00
1
Step 944000
Ar 8.883283e-01 0.000000e+00 0.000000e+00
1
Step 945000
Ar 9.122523e-01 0.000000e+00 0.000000e+00
1
Step 946000
Ar 8.286092e-01 0.000000e+00 0.000000e+00
1
Step 947000
Ar 8.119942e-01 0.000000e+00 0.000000e+00
1
Step 948000
Ar 8.529975e-01 0.000000e+00 0.000000e+00
1
Step 949000
Ar 8.545157e-01 0.000000e+00 0.000000e+00
1
Step 950000
Ar 8.292110e-01 0.000000e+00 0.000000e+00
1
Step 951000
Ar 9.023766e-01 0.000000e+00 0.000000e+00
1
Step 952000
Ar 9.019932e-01 0.000000e+00 0.000000e+00
1
Step 953000
Ar 9.061154e-01 0.000000e+00 0.000000e+00
1
Step 954000
Ar 8.671543e-01 0.000000e+00 0.000000e+00
1
Step 955000
Ar 8.712291e-01 0.000000e+00 0.000000e+00
1
Step 956000
Ar 7.754406e-01 0.000000e+00 0.000000e+00
1
Step 957000
Ar 8.908367e-01 0.000000e+00 0.000000e+00
1
Step 958000
Ar 9.170232e-01 0.000000e+00 0.000000e+00
1
Step 959000
Ar 8.652141e-01 0.000000e+00 0.000000e+00
1
Step 960000
Ar 8.119822e-01 0.000000e+00 0.000000e+00
1
Step 961000
Ar 8.196958e-01 0.000000e+00 0.000000e+00
1
Step 962000
Ar 6.272501e-01 0.000000e+00 0.000000e+00
1
Step 963000
Ar 8.592519e-01 0.000000e+00 0.000000e+00
1
Step 964000
Ar 8.308232e-01 0.000000e+00 0.000000e+00
1
Step 965000
Ar 9.136201e-01 0.000000e+00 0.000000e+00
1
Step 966000
Ar 8.613030e-01 0.000000e+00 0.000000e+00
1
Step 967000
Ar 9.009176e-01 0.000000e+00 0.000000e+00
1
Step 968000
Ar 8.800257e-01 0.000000e+00 0.000000e+00
1
Step 969000
Ar 8.513924e-01 0.000000e+00 0.000000e+00
1
Step 970000
Ar 8.664469e-01 0.000000e+00 0.000000e+00
1
Step 971000
Ar 8.735062e-01 0.000000e+00 0.000000e+00
1
Step 972000
Ar 8.980660e-01 0.000000e+00 0.000000e+00
1
Step 973000
Ar 7.281512e-01 0.000000e+00 0.000000e+00
1
Step 974000
Ar 8.554208e-01 0.000000e+00 0.000000e+00
1
Step 975000
Ar 8.075606e-01 0.000000e+00 0.000000e+00
1
Step 976000
Ar 8.679851e-01 0.000000e+00 0.000000e+00
1
Step 977000
Ar 8.395680e-01 0.000000e+00 0.000000e+00
1
Step 978000
Ar 8.356603e-01 0.000000e+00 0.000000e+00
1
Step 979000
Ar 9.042737e-01 0.000000e+00 0.000000e+00
1
Step 980000
Ar 8.420231e-01 0.000000e+00 0.000000e+00
1
Step 981000
Ar 8.721895e-01 0.000000e+00 0.000000e+00
1
Step 982000
Ar 7.978704e-01 0.000000e+00 0.000000e+00
1
Step 983000
Ar 9.147175e-01 0.000000e+00 0.000000e+00
1
Step 984000
Ar 8.389498e-01 0.000000e+00 0.000000e+00
1
Step 985000
Ar 8.701453e-01 0.000000e+00 0.000000e+00
1
Step 986000
Ar 8.415893e-01 0.000000e+00 0.000000e+00
1
Step 987000
Ar 8.855354e-01 0.000000e+00 0.000000e+00
1
Step 988000
Ar 8.293152e-01 0.000000e+00 0.000000e+00
1
Step 989000
Ar 7.418429e-01 0.000000e+00 0.000000e+00
1
Step 990000
Ar 8.276698e-01 0.000000e+00 0.000000e+00
1
Step 991000
Ar 6.720853e-01 0.000000e+00 0.000000e+00
1
Step 992000
Ar 7.411634e-01 0.000000e+00 0.000000e+00
1
Step 993000
Ar 8.500767e-01 0.000000e+00 0.000000e+00
1
Step 994000
Ar 8.910226e-01 0.000000e+00 0.000000e+00
1
Step 995000
Ar 8.014886e-01 0.000000e+00 0.000000e+00
1
Step 996000
Ar 7.654569e-01 0.000000e+00 0.000000e+00
1
Step 997000
Ar 8.583295e-01 0.000000e+00 0.000000e+00
1
Step 998000
Ar 8.375698e-01 0.000000e+00 0.000000e+00
1
Step 999000
Ar 8.365677e-01 0.000000e+00 0.000000e+00
